*SPEF "IEEE 1481-1998"
*DESIGN "Adder32"
*DATE "Wed Apr 08 06:34:15 pm 2026"
*VENDOR "Cadence Design Systems"
*PROGRAM "Genus(TM) Synthesis Solution"
*VERSION "22.17-s071_1"
*DESIGN_FLOW "PIN_CAP NONE" "NAME_SCOPE LOCAL"
*DIVIDER /
*DELIMITER :
*BUS_DELIMITER []
*T_UNIT 1 NS
*C_UNIT 1 PF
*R_UNIT 1 OHM
*L_UNIT 1 HENRY
// Wireload mode: enclosed

*NAME_MAP

*1 iClk
*2 iA[31]
*3 iA[30]
*4 iA[29]
*5 iA[28]
*6 iA[27]
*7 iA[26]
*8 iA[25]
*9 iA[24]
*10 iA[23]
*11 iA[22]
*12 iA[21]
*13 iA[20]
*14 iA[19]
*15 iA[18]
*16 iA[17]
*17 iA[16]
*18 iA[15]
*19 iA[14]
*20 iA[13]
*21 iA[12]
*22 iA[11]
*23 iA[10]
*24 iA[9]
*25 iA[8]
*26 iA[7]
*27 iA[6]
*28 iA[5]
*29 iA[4]
*30 iA[3]
*31 iA[2]
*32 iA[1]
*33 iA[0]
*34 iB[31]
*35 iB[30]
*36 iB[29]
*37 iB[28]
*38 iB[27]
*39 iB[26]
*40 iB[25]
*41 iB[24]
*42 iB[23]
*43 iB[22]
*44 iB[21]
*45 iB[20]
*46 iB[19]
*47 iB[18]
*48 iB[17]
*49 iB[16]
*50 iB[15]
*51 iB[14]
*52 iB[13]
*53 iB[12]
*54 iB[11]
*55 iB[10]
*56 iB[9]
*57 iB[8]
*58 iB[7]
*59 iB[6]
*60 iB[5]
*61 iB[4]
*62 iB[3]
*63 iB[2]
*64 iB[1]
*65 iB[0]
*66 oS[31]
*67 oS[30]
*68 oS[29]
*69 oS[28]
*70 oS[27]
*71 oS[26]
*72 oS[25]
*73 oS[24]
*74 oS[23]
*75 oS[22]
*76 oS[21]
*77 oS[20]
*78 oS[19]
*79 oS[18]
*80 oS[17]
*81 oS[16]
*82 oS[15]
*83 oS[14]
*84 oS[13]
*85 oS[12]
*86 oS[11]
*87 oS[10]
*88 oS[9]
*89 oS[8]
*90 oS[7]
*91 oS[6]
*92 oS[5]
*93 oS[4]
*94 oS[3]
*95 oS[2]
*96 oS[1]
*97 oS[0]
*98 oS[0]
*99 oS[1]
*100 oS[2]
*101 oS[3]
*102 oS[4]
*103 oS[5]
*104 oS[6]
*105 oS[7]
*106 oS[8]
*107 oS[9]
*108 oS[10]
*109 oS[11]
*110 oS[12]
*111 oS[13]
*112 oS[14]
*113 oS[15]
*114 oS[16]
*115 oS[17]
*116 oS[18]
*117 oS[19]
*118 oS[20]
*119 oS[21]
*120 oS[22]
*121 oS[23]
*122 oS[24]
*123 oS[25]
*124 oS[26]
*125 oS[27]
*126 oS[28]
*127 oS[29]
*128 oS[30]
*129 oS[31]
*130 add_8_11_n_2654
*131 add_8_11_n_2656
*132 add_8_11_n_2660
*133 add_8_11_n_2662
*134 add_8_11_n_2664
*135 add_8_11_n_2674
*136 add_8_11_n_2675
*137 add_8_11_n_2676
*138 add_8_11_n_2689
*139 add_8_11_n_2714
*140 add_8_11_n_2718
*141 add_8_11_n_2732
*142 add_8_11_n_2742
*143 add_8_11_n_2745
*144 add_8_11_n_2748
*145 add_8_11_n_2750
*146 add_8_11_n_2754
*147 add_8_11_n_2756
*148 add_8_11_n_2778
*149 add_8_11_n_2779
*150 add_8_11_n_2784
*151 add_8_11_n_2790
*152 add_8_11_n_2792
*153 add_8_11_n_2794
*154 add_8_11_n_2800
*155 add_8_11_n_2812
*156 add_8_11_n_2815
*157 add_8_11_n_2821
*158 add_8_11_n_2888
*159 add_8_11_n_2896
*160 add_8_11_n_2899
*161 add_8_11_n_2902
*162 add_8_11_n_2916
*163 add_8_11_n_2929
*164 add_8_11_n_2930
*165 add_8_11_n_2931
*166 add_8_11_n_2934
*167 add_8_11_n_2935
*168 add_8_11_n_2936
*169 add_8_11_n_2941
*170 add_8_11_n_2942
*171 add_8_11_n_2943
*172 add_8_11_n_2951
*173 add_8_11_n_2966
*174 add_8_11_n_2976
*175 add_8_11_n_2997
*176 add_8_11_n_3016
*177 add_8_11_n_3024
*178 add_8_11_n_3037
*179 add_8_11_n_3041
*180 add_8_11_n_3044
*181 add_8_11_n_3045
*182 add_8_11_n_3049
*183 add_8_11_n_3053
*184 add_8_11_n_3057
*185 iB[31]
*186 iB[30]
*187 iB[29]
*188 iB[28]
*189 iB[27]
*190 iB[26]
*191 iB[25]
*192 iB[24]
*193 iB[23]
*194 iB[22]
*195 iB[21]
*196 iB[20]
*197 iB[19]
*198 iB[18]
*199 iB[17]
*200 iB[16]
*201 iB[15]
*202 iB[14]
*203 iB[13]
*204 iB[12]
*205 iB[11]
*206 iB[10]
*207 iB[9]
*208 iB[8]
*209 iB[7]
*210 iB[6]
*211 iB[5]
*212 iB[4]
*213 iB[3]
*214 iB[2]
*215 iB[1]
*216 iB[0]
*217 iA[31]
*218 iA[30]
*219 iA[29]
*220 iA[28]
*221 iA[27]
*222 iA[26]
*223 iA[25]
*224 iA[24]
*225 iA[23]
*226 iA[22]
*227 iA[21]
*228 iA[20]
*229 iA[19]
*230 iA[18]
*231 iA[17]
*232 iA[16]
*233 iA[15]
*234 iA[14]
*235 iA[13]
*236 iA[12]
*237 iA[11]
*238 iA[10]
*239 iA[9]
*240 iA[8]
*241 iA[7]
*242 iA[6]
*243 iA[5]
*244 iA[4]
*245 iA[3]
*246 iA[2]
*247 iA[1]
*248 iA[0]
*249 iClk
*250 n_148
*251 n_154
*252 n_157
*253 n_181
*254 n_184
*255 n_191
*256 n_206
*257 n_223
*258 n_227
*259 n_235
*260 n_236
*261 n_241
*262 n_244
*263 n_248
*264 n_249
*265 n_254
*266 n_255
*267 n_256
*268 n_260
*269 n_273
*270 n_281
*271 n_285
*272 n_287
*273 n_288
*274 n_289
*275 n_292
*276 n_316
*277 n_332
*278 n_348
*279 n_410
*280 n_423
*281 n_430
*282 n_432
*283 n_454
*284 n_455
*285 n_456
*286 n_462
*287 n_463
*288 n_464
*289 n_466
*290 n_467
*291 n_472
*292 n_494
*293 n_500
*294 n_502
*295 n_507
*296 n_508
*297 n_511
*298 n_646
*299 n_660
*300 n_661
*301 n_662
*302 n_663
*303 n_668
*304 n_685
*305 n_686
*306 n_687
*307 n_696
*308 n_698
*309 n_700
*310 n_703
*311 n_714
*312 n_715
*313 n_716
*314 n_719
*315 n_722
*316 n_1594
*317 n_1761
*318 n_2240
*319 n_2243
*320 n_2253
*321 n_2264
*322 n_2279
*323 n_2377
*324 n_2378
*325 n_2379
*326 n_2380
*327 n_2382
*328 n_2384
*329 n_2386
*330 n_2387
*331 n_2389
*332 n_2390
*333 n_2419
*334 n_2420
*335 n_2421
*336 n_2432
*337 n_2436
*338 n_2437
*339 n_2439
*340 n_2464
*341 n_2475
*342 n_2476
*343 n_2478
*344 n_2479
*345 n_2480
*346 n_2481
*347 n_2482
*348 n_2483
*349 n_2485
*350 n_2486
*351 n_2490
*352 n_2503
*353 n_2506
*354 n_2507
*355 n_2508
*356 n_2514
*357 n_2515
*358 n_2516
*359 n_2520
*360 n_2522
*361 n_2531
*362 n_2533
*363 n_2536
*364 n_2538
*365 n_2539
*366 n_2541
*367 n_2543
*368 n_2546
*369 n_2547
*370 n_2551
*371 n_2553
*372 n_2555
*373 n_2557
*374 n_2558
*375 n_2559
*376 n_2565
*377 n_2566
*378 n_2567
*379 n_2568
*380 n_2571
*381 n_2572
*382 n_2573
*383 n_2575
*384 n_2581
*385 n_2582
*386 n_2583
*387 n_2584
*388 n_2585
*389 n_2586
*390 n_2587
*391 n_2590
*392 n_2591
*393 n_2593
*394 n_2625
*395 n_2626
*396 n_2634
*397 n_2642
*398 n_2643
*399 n_2644
*400 n_2645
*401 n_2648
*402 n_2651
*403 n_2665
*404 n_2666
*405 n_2667
*406 n_2668
*407 n_2700
*408 n_2709
*409 n_2710
*410 n_2711
*411 n_2712
*412 n_2713
*413 n_2714
*414 n_2715
*415 n_2718
*416 n_2720
*417 n_2721
*418 n_2723
*419 n_2726
*420 n_2727
*421 n_2736
*422 n_2737
*423 n_2738
*424 n_2741
*425 n_2747
*426 n_2755
*427 n_2756
*428 n_2757
*429 n_2758
*430 n_2763
*431 n_2768
*432 n_2769
*433 n_2770
*434 n_2771
*435 n_2772
*436 n_2774
*437 n_2775
*438 n_2776
*439 n_2786
*440 n_2787
*441 n_2789
*442 n_2790
*443 n_2791
*444 n_2792
*445 n_2793
*446 n_2794
*447 n_2795
*448 n_2796
*449 n_2798
*450 n_2801
*451 n_2805
*452 n_2806
*453 n_2808
*454 n_2809
*455 n_2845
*456 n_2848
*457 n_2849
*458 n_2850
*459 n_2851
*460 n_2852
*461 n_2854
*462 n_2894
*463 n_2895
*464 n_2896
*465 n_4400
*466 n_4401
*467 n_4428
*468 n_4429
*469 n_4437
*470 n_4438
*471 n_4481
*472 n_4482
*473 n_4483
*474 n_4491
*475 n_4492
*476 n_4493
*477 n_4498
*478 n_4499
*479 n_4500
*480 n_4501
*481 n_4502
*482 n_4504
*483 n_4547
*484 n_4552
*485 n_4553
*486 n_4554
*487 n_4555
*488 n_4557
*489 n_2579
*490 n_4558
*491 n_4561
*492 n_4564
*493 n_4565
*494 n_4610
*495 n_4611
*496 n_4673
*497 n_4718
*498 n_803
*499 n_1095
*500 n_1116
*501 n_2855
*502 n_2998
*503 n_3026
*504 n_3070
*505 n_3136
*506 n_3258
*507 n_3363
*508 n_3385
*509 n_3464
*510 n_3485
*511 n_4825
*512 n_2578
*513 n_1592
*514 n_1759
*515 n_2577
*516 n_2811
*517 n_4671
*518 n_4716
*519 n_4503
*520 n_5885
*521 n_5932
*522 n_5933
*523 n_5934
*524 n_5935
*525 n_5936
*526 n_5937
*527 n_5938
*528 n_5939
*529 n_7184
*530 n_7185
*531 n_7186
*532 n_7187
*533 n_7188
*534 n_7189
*535 n_7191
*536 n_7193
*537 n_7196
*538 n_7197
*539 n_7198
*540 n_7199
*541 n_7202
*542 n_7207
*543 n_7208
*544 n_7223
*545 n_7225
*546 n_7268
*547 n_7279
*548 n_7280
*549 n_7281
*550 n_7282
*551 n_7283
*552 n_7291
*553 n_7292
*554 n_7293
*555 n_7294
*556 n_7310
*557 n_7311
*558 n_7312
*559 n_7313
*560 n_7314
*561 n_7315
*562 n_7316
*563 n_7317
*564 n_7318
*565 n_7319
*566 n_7320
*567 n_7321
*568 n_7322
*569 n_7323
*570 n_7725
*571 n_7990
*572 oS_reg[31]
*573 oS_reg[30]
*574 oS_reg[28]
*575 oS_reg[24]
*576 oS_reg[16]
*577 oS_reg[0]
*578 oS_reg[15]
*579 oS_reg[23]
*580 oS_reg[14]
*581 oS_reg[13]
*582 oS_reg[27]
*583 oS_reg[22]
*584 oS_reg[12]
*585 oS_reg[11]
*586 oS_reg[21]
*587 oS_reg[10]
*588 oS_reg[9]
*589 oS_reg[29]
*590 oS_reg[26]
*591 oS_reg[20]
*592 oS_reg[8]
*593 oS_reg[7]
*594 oS_reg[19]
*595 oS_reg[6]
*596 oS_reg[5]
*597 oS_reg[25]
*598 oS_reg[18]
*599 oS_reg[4]
*600 oS_reg[3]
*601 oS_reg[17]
*602 oS_reg[2]
*603 oS_reg[1]
*604 add_8_11_g3101__5115
*605 add_8_11_g3102__7482
*606 add_8_11_g3106__9945
*607 add_8_11_g3108__2346
*608 add_8_11_g3110__7410
*609 add_8_11_g3119__6783
*610 add_8_11_g3120__3680
*611 add_8_11_g3121__1617
*612 add_8_11_g3131__4733
*613 add_8_11_g3149__4319
*614 add_8_11_g3152__6783
*615 add_8_11_g3161__6131
*616 add_8_11_g3167__9315
*617 add_8_11_g3168__9945
*618 add_8_11_g3169__2883
*619 add_8_11_g3170__2346
*620 add_8_11_g3172__7410
*621 add_8_11_g3173__6417
*622 add_8_11_g3189
*623 add_8_11_g3190__2802
*624 add_8_11_g3192__5122
*625 add_8_11_g3195__6131
*626 add_8_11_g3196__1881
*627 add_8_11_g3198__7482
*628 add_8_11_g3204__9315
*629 add_8_11_g3205__9945
*630 add_8_11_g3207__2346
*631 add_8_11_g3209__7410
*632 add_8_11_g3244__7410
*633 add_8_11_g3249__6260
*634 add_8_11_g3252__5526
*635 add_8_11_g3254__3680
*636 add_8_11_g3272__9945
*637 add_8_11_g3273__2883
*638 add_8_11_g3274__2346
*639 add_8_11_g3276__7410
*640 add_8_11_g3277__6417
*641 add_8_11_g3278__5477
*642 add_8_11_g3279__2398
*643 add_8_11_g3282__4319
*644 add_8_11_g3283__8428
*645 add_8_11_g3285__6783
*646 add_8_11_g3291
*647 add_8_11_g3297
*648 add_8_11_g3300
*649 add_8_11_g3311__7482
*650 add_8_11_g3335
*651 add_8_11_g3339
*652 add_8_11_g3342
*653 add_8_11_g3345
*654 add_8_11_g3346
*655 add_8_11_g3347
*656 add_8_11_g3369__8428
*657 add_8_11_g3378__7098
*658 fopt3395
*659 fopt3414
*660 fopt3416
*661 fopt3429
*662 add_8_11_g3270__3438
*663 add_8_11_g3318__3443
*664 g3450
*665 g3451
*666 g3455
*667 g3458
*668 g3462
*669 g3463
*670 g3468
*671 g3469
*672 g3470
*673 g3474
*674 g3486
*675 add_8_11_g3496
*676 add_8_11_g3128__3499
*677 add_8_11_g3275__3501
*678 add_8_11_g3373__3531
*679 add_8_11_g3184__3543
*680 add_8_11_g3326__8428_dup
*681 g3563
*682 g90
*683 g91
*684 g266
*685 g263
*686 g124
*687 g926
*688 g918
*689 g913
*690 g927
*691 g920
*692 g924
*693 g922
*694 g921
*695 g981
*696 g1008
*697 g1005
*698 g996
*699 g1003
*700 g998
*701 g994
*702 g368
*703 g3592
*704 g3593
*705 g3594
*706 g3595
*707 g84
*708 g30
*709 g79
*710 g3596
*711 g78
*712 g2870
*713 g2882
*714 g2867
*715 g2866
*716 g2885
*717 g2857
*718 g2863
*719 g2881
*720 g2875
*721 g2880
*722 g2864
*723 fopt3654
*724 fopt3904
*725 fopt3922
*726 drc_buf_sp4339
*727 drc_buf_sp4341
*728 drc_buf_sp4488
*729 drc_buf_sp4490
*730 g19
*731 g22
*732 g25
*733 g21
*734 g4924
*735 g2
*736 g5007
*737 g5008
*738 g5009
*739 g5011
*740 g5013
*741 g5015
*742 g5016
*743 g5018
*744 g5019
*745 g5044
*746 g5045
*747 g5046
*748 add_8_11_g3284__5055
*749 fopt5058
*750 g5060
*751 g5061
*752 g5076
*753 g5085
*754 g47
*755 g49
*756 g48
*757 g51
*758 g5086
*759 g68
*760 g67
*761 g5087
*762 g5088
*763 g5090
*764 g5103
*765 g5104
*766 g5106
*767 g33
*768 g5110
*769 g5112
*770 g5113
*771 g135
*772 g137
*773 g5118
*774 g5124
*775 g5126
*776 g5129
*777 g5131
*778 g5132
*779 g5134
*780 g5136
*781 g5139
*782 g5140
*783 g5144
*784 g5146
*785 g5148
*786 g5150
*787 g3
*788 g5154
*789 g5155
*790 g86
*791 g88
*792 g81
*793 g109
*794 g113
*795 g110
*796 g141
*797 g142
*798 g145
*799 g147
*800 g143
*801 g148
*802 g144
*803 g146
*804 g537
*805 g541
*806 g536
*807 g538
*808 g542
*809 g1344
*810 g1345
*811 g1349
*812 g108
*813 g5158
*814 g5159
*815 g5160
*816 g803
*817 g806
*818 g5165
*819 g112
*820 g5166
*821 g5167
*822 g5182
*823 g463
*824 g469
*825 g476
*826 g467
*827 g473
*828 g470
*829 g471
*830 g472
*831 g465
*832 g468
*833 g478
*834 g477
*835 g198
*836 g201
*837 g5189
*838 g5190
*839 g5191
*840 g80
*841 g5194
*842 g153
*843 g154
*844 g156
*845 g155
*846 g106
*847 g5200
*848 g93
*849 g94
*850 g97
*851 g5201
*852 g5202
*853 g96
*854 g92
*855 g801
*856 g5206
*857 g5207
*858 g807
*859 g802
*860 g5208
*861 g805
*862 g5209
*863 g5210
*864 g5211
*865 g64
*866 g5213
*867 g5215
*868 g5216
*869 fopt1
*870 fopt2
*871 fopt3
*872 g54
*873 g5244
*874 g5245
*875 g5246
*876 g5247
*877 fopt5248
*878 fopt5249
*879 fopt5250
*880 g830
*881 g831
*882 g832
*883 fopt5352
*884 fopt5377
*885 fopt5413
*886 fopt5469
*887 fopt5576
*888 fopt5669
*889 fopt5688
*890 fopt5757
*891 fopt5776
*892 g6580
*893 g6581
*894 fopt6602
*895 g6605
*896 add_8_11_g6612
*897 add_8_11_g3313__6613
*898 g31
*899 g6639
*900 g32
*901 g16
*902 g6646
*903 g17
*904 fopt6650
*905 fopt6651
*906 fopt6652
*907 g6653
*908 g6654
*909 fopt6655
*910 g6656
*911 g240
*912 g24
*913 g6690
*914 fopt6691
*915 fopt29
*916 g6693
*917 g6694
*918 g6697
*919 g6700
*920 g6701
*921 g6743
*922 g540_dup
*923 fopt6797
*924 fopt6798
*925 fopt6835
*926 fopt6836
*927 fopt6930
*928 g7862
*929 g7906
*930 g213
*931 g214
*932 g216
*933 g215
*934 g7907
*935 g212
*936 g211
*937 g8970
*938 g8971
*939 g8972
*940 g8973
*941 g8974
*942 fopt8975
*943 g8977
*944 g8978
*945 g8982
*946 fopt21
*947 fopt22
*948 g20
*949 g26
*950 g8985
*951 g34
*952 g39
*953 g40
*954 g13
*955 g9043
*956 g9044
*957 g9045
*958 fopt9046
*959 g539_dup
*960 g9050
*961 fopt
*962 g9051
*963 g36
*964 fopt9065
*965 g9066
*966 fopt9067
*967 g9068
*968 g9069
*969 g9070
*970 g9071
*971 g9072
*972 add_8_11_g3125__9073
*973 g18_dup
*974 add_8_11_g3135__9074
*975 g9075
*976 g9076
*977 g9077
*978 fopt9427
*979 fopt9660

*PORTS

*1 I
*2 I
*3 I
*4 I
*5 I
*6 I
*7 I
*8 I
*9 I
*10 I
*11 I
*12 I
*13 I
*14 I
*15 I
*16 I
*17 I
*18 I
*19 I
*20 I
*21 I
*22 I
*23 I
*24 I
*25 I
*26 I
*27 I
*28 I
*29 I
*30 I
*31 I
*32 I
*33 I
*34 I
*35 I
*36 I
*37 I
*38 I
*39 I
*40 I
*41 I
*42 I
*43 I
*44 I
*45 I
*46 I
*47 I
*48 I
*49 I
*50 I
*51 I
*52 I
*53 I
*54 I
*55 I
*56 I
*57 I
*58 I
*59 I
*60 I
*61 I
*62 I
*63 I
*64 I
*65 I
*66 O
*67 O
*68 O
*69 O
*70 O
*71 O
*72 O
*73 O
*74 O
*75 O
*76 O
*77 O
*78 O
*79 O
*80 O
*81 O
*82 O
*83 O
*84 O
*85 O
*86 O
*87 O
*88 O
*89 O
*90 O
*91 O
*92 O
*93 O
*94 O
*95 O
*96 O
*97 O

*D_NET *98 0.000000

*CONN
*P *97 O
*I *577:QN O *L 0.0000 *D DFFHQNx1_ASAP7_75t_SL

*CAP
1 *97 0

*RES
1 *577:QN *97 0
*END

*D_NET *99 0.000000

*CONN
*P *96 O
*I *603:QN O *L 0.0000 *D DFFHQNx1_ASAP7_75t_SL

*CAP
1 *96 0

*RES
1 *603:QN *96 0
*END

*D_NET *100 0.000000

*CONN
*P *95 O
*I *602:QN O *L 0.0000 *D DFFHQNx1_ASAP7_75t_SL

*CAP
1 *95 0

*RES
1 *602:QN *95 0
*END

*D_NET *101 0.000000

*CONN
*P *94 O
*I *600:QN O *L 0.0000 *D DFFHQNx1_ASAP7_75t_SL

*CAP
1 *94 0

*RES
1 *600:QN *94 0
*END

*D_NET *102 0.000000

*CONN
*P *93 O
*I *599:QN O *L 0.0000 *D DFFHQNx1_ASAP7_75t_SL

*CAP
1 *93 0

*RES
1 *599:QN *93 0
*END

*D_NET *103 0.000000

*CONN
*P *92 O
*I *596:QN O *L 0.0000 *D DFFHQNx1_ASAP7_75t_SL

*CAP
1 *92 0

*RES
1 *596:QN *92 0
*END

*D_NET *104 0.000000

*CONN
*P *91 O
*I *595:QN O *L 0.0000 *D DFFHQNx1_ASAP7_75t_SL

*CAP
1 *91 0

*RES
1 *595:QN *91 0
*END

*D_NET *105 0.000000

*CONN
*P *90 O
*I *593:QN O *L 0.0000 *D DFFHQNx1_ASAP7_75t_SL

*CAP
1 *90 0

*RES
1 *593:QN *90 0
*END

*D_NET *106 0.000000

*CONN
*P *89 O
*I *592:QN O *L 0.0000 *D DFFHQNx1_ASAP7_75t_SL

*CAP
1 *89 0

*RES
1 *592:QN *89 0
*END

*D_NET *107 0.000000

*CONN
*P *88 O
*I *588:QN O *L 0.0000 *D DFFHQNx1_ASAP7_75t_SL

*CAP
1 *88 0

*RES
1 *588:QN *88 0
*END

*D_NET *108 0.000000

*CONN
*P *87 O
*I *587:QN O *L 0.0000 *D DFFHQNx1_ASAP7_75t_SL

*CAP
1 *87 0

*RES
1 *587:QN *87 0
*END

*D_NET *109 0.000000

*CONN
*P *86 O
*I *585:QN O *L 0.0000 *D DFFHQNx1_ASAP7_75t_SL

*CAP
1 *86 0

*RES
1 *585:QN *86 0
*END

*D_NET *110 0.000000

*CONN
*P *85 O
*I *584:QN O *L 0.0000 *D DFFHQNx1_ASAP7_75t_SL

*CAP
1 *85 0

*RES
1 *584:QN *85 0
*END

*D_NET *111 0.000000

*CONN
*P *84 O
*I *581:QN O *L 0.0000 *D DFFHQNx1_ASAP7_75t_SL

*CAP
1 *84 0

*RES
1 *581:QN *84 0
*END

*D_NET *112 0.000000

*CONN
*P *83 O
*I *580:QN O *L 0.0000 *D DFFHQNx1_ASAP7_75t_SL

*CAP
1 *83 0

*RES
1 *580:QN *83 0
*END

*D_NET *113 0.000000

*CONN
*P *82 O
*I *578:QN O *L 0.0000 *D DFFHQNx1_ASAP7_75t_SL

*CAP
1 *82 0

*RES
1 *578:QN *82 0
*END

*D_NET *114 0.000000

*CONN
*P *81 O
*I *576:QN O *L 0.0000 *D DFFHQNx1_ASAP7_75t_SL

*CAP
1 *81 0

*RES
1 *576:QN *81 0
*END

*D_NET *115 0.000000

*CONN
*P *80 O
*I *601:QN O *L 0.0000 *D DFFHQNx1_ASAP7_75t_SL

*CAP
1 *80 0

*RES
1 *601:QN *80 0
*END

*D_NET *116 0.000000

*CONN
*P *79 O
*I *598:QN O *L 0.0000 *D DFFHQNx1_ASAP7_75t_SL

*CAP
1 *79 0

*RES
1 *598:QN *79 0
*END

*D_NET *117 0.000000

*CONN
*P *78 O
*I *594:QN O *L 0.0000 *D DFFHQNx1_ASAP7_75t_SL

*CAP
1 *78 0

*RES
1 *594:QN *78 0
*END

*D_NET *118 0.000000

*CONN
*P *77 O
*I *591:QN O *L 0.0000 *D DFFHQNx1_ASAP7_75t_SL

*CAP
1 *77 0

*RES
1 *591:QN *77 0
*END

*D_NET *119 0.000000

*CONN
*P *76 O
*I *586:QN O *L 0.0000 *D DFFHQNx1_ASAP7_75t_SL

*CAP
1 *76 0

*RES
1 *586:QN *76 0
*END

*D_NET *120 0.000000

*CONN
*P *75 O
*I *583:QN O *L 0.0000 *D DFFHQNx1_ASAP7_75t_SL

*CAP
1 *75 0

*RES
1 *583:QN *75 0
*END

*D_NET *121 0.000000

*CONN
*P *74 O
*I *579:QN O *L 0.0000 *D DFFHQNx1_ASAP7_75t_SL

*CAP
1 *74 0

*RES
1 *579:QN *74 0
*END

*D_NET *122 0.000000

*CONN
*P *73 O
*I *575:QN O *L 0.0000 *D DFFHQNx1_ASAP7_75t_SL

*CAP
1 *73 0

*RES
1 *575:QN *73 0
*END

*D_NET *123 0.000000

*CONN
*P *72 O
*I *597:QN O *L 0.0000 *D DFFHQNx1_ASAP7_75t_SL

*CAP
1 *72 0

*RES
1 *597:QN *72 0
*END

*D_NET *124 0.000000

*CONN
*P *71 O
*I *590:QN O *L 0.0000 *D DFFHQNx1_ASAP7_75t_SL

*CAP
1 *71 0

*RES
1 *590:QN *71 0
*END

*D_NET *125 0.000000

*CONN
*P *70 O
*I *582:QN O *L 0.0000 *D DFFHQNx1_ASAP7_75t_SL

*CAP
1 *70 0

*RES
1 *582:QN *70 0
*END

*D_NET *126 0.000000

*CONN
*P *69 O
*I *574:QN O *L 0.0000 *D DFFHQNx1_ASAP7_75t_SL

*CAP
1 *69 0

*RES
1 *574:QN *69 0
*END

*D_NET *127 0.000000

*CONN
*P *68 O
*I *589:QN O *L 0.0000 *D DFFHQNx1_ASAP7_75t_SL

*CAP
1 *68 0

*RES
1 *589:QN *68 0
*END

*D_NET *128 0.000000

*CONN
*P *67 O
*I *573:QN O *L 0.0000 *D DFFHQNx1_ASAP7_75t_SL

*CAP
1 *67 0

*RES
1 *573:QN *67 0
*END

*D_NET *129 0.000000

*CONN
*P *66 O
*I *572:QN O *L 0.0000 *D DFFHQNx1_ASAP7_75t_SL

*CAP
1 *66 0

*RES
1 *572:QN *66 0
*END

*D_NET *130 0.000000

*CONN
*I *669:B I *L 0.0009 *D XNOR2xp5_ASAP7_75t_SL
*I *604:Y O *L 0.0000 *D OAI21xp5_ASAP7_75t_SL

*CAP
1 *669:B 0

*RES
1 *604:Y *669:B 0
*END

*D_NET *131 0.000000

*CONN
*I *665:B I *L 0.0009 *D XNOR2xp5_ASAP7_75t_SL
*I *605:Y O *L 0.0000 *D OAI21xp5_ASAP7_75t_SL

*CAP
1 *665:B 0

*RES
1 *605:Y *665:B 0
*END

*D_NET *132 0.000000

*CONN
*I *664:B I *L 0.0009 *D XNOR2xp5_ASAP7_75t_SL
*I *606:Y O *L 0.0000 *D OAI21xp5_ASAP7_75t_SL

*CAP
1 *664:B 0

*RES
1 *606:Y *664:B 0
*END

*D_NET *133 0.000000

*CONN
*I *667:B I *L 0.0009 *D XNOR2xp5_ASAP7_75t_SL
*I *607:Y O *L 0.0000 *D OAI21xp5_ASAP7_75t_SL

*CAP
1 *667:B 0

*RES
1 *607:Y *667:B 0
*END

*D_NET *134 0.000000

*CONN
*I *670:B I *L 0.0009 *D XNOR2xp5_ASAP7_75t_SL
*I *608:Y O *L 0.0000 *D OAI21xp5_ASAP7_75t_SL

*CAP
1 *670:B 0

*RES
1 *608:Y *670:B 0
*END

*D_NET *135 0.000000

*CONN
*I *672:B I *L 0.0009 *D XNOR2xp5_ASAP7_75t_SL
*I *609:Y O *L 0.0000 *D OAI21xp5_ASAP7_75t_SL

*CAP
1 *672:B 0

*RES
1 *609:Y *672:B 0
*END

*D_NET *136 0.000000

*CONN
*I *668:B I *L 0.0009 *D XNOR2xp5_ASAP7_75t_SL
*I *610:Y O *L 0.0000 *D OAI21xp5_ASAP7_75t_SL

*CAP
1 *668:B 0

*RES
1 *610:Y *668:B 0
*END

*D_NET *137 0.000000

*CONN
*I *673:B I *L 0.0009 *D XNOR2xp5_ASAP7_75t_SL
*I *611:Y O *L 0.0000 *D OAI21xp5_ASAP7_75t_SL

*CAP
1 *673:B 0

*RES
1 *611:Y *673:B 0
*END

*D_NET *138 0.000000

*CONN
*I *763:B I *L 0.0009 *D XNOR2xp5_ASAP7_75t_SL
*I *612:Y O *L 0.0000 *D OAI21xp5_ASAP7_75t_SL

*CAP
1 *763:B 0

*RES
1 *612:Y *763:B 0
*END

*D_NET *139 0.000000

*CONN
*I *676:B I *L 0.0005 *D OAI31xp33_ASAP7_75t_SL
*I *613:Y O *L 0.0000 *D AOI21xp5_ASAP7_75t_SL

*CAP
1 *676:B 0

*RES
1 *613:Y *676:B 0
*END

*D_NET *140 0.000000

*CONN
*I *608:B I *L 0.0006 *D OAI21xp5_ASAP7_75t_SL
*I *614:Y O *L 0.0000 *D OA21x2_ASAP7_75t_SL

*CAP
1 *608:B 0

*RES
1 *614:Y *608:B 0
*END

*D_NET *141 0.000000

*CONN
*I *606:B I *L 0.0006 *D OAI21xp5_ASAP7_75t_SL
*I *615:Y O *L 0.0000 *D AOI221xp5_ASAP7_75t_SL

*CAP
1 *606:B 0

*RES
1 *615:Y *606:B 0
*END

*D_NET *142 0.000000

*CONN
*I *762:A1 I *L 0.0006 *D OAI21xp5_ASAP7_75t_SL
*I *616:Y O *L 0.0000 *D NAND2xp5_ASAP7_75t_SL

*CAP
1 *762:A1 0

*RES
1 *616:Y *762:A1 0
*END

*D_NET *143 0.000000

*CONN
*I *611:A1 I *L 0.0006 *D OAI21xp5_ASAP7_75t_SL
*I *617:Y O *L 0.0000 *D OR2x2_ASAP7_75t_SL

*CAP
1 *611:A1 0

*RES
1 *617:Y *611:A1 0
*END

*D_NET *144 0.000000

*CONN
*I *610:A1 I *L 0.0006 *D OAI21xp5_ASAP7_75t_SL
*I *618:Y O *L 0.0000 *D NAND2xp5_ASAP7_75t_SL

*CAP
1 *610:A1 0

*RES
1 *618:Y *610:A1 0
*END

*D_NET *145 0.000000

*CONN
*I *605:A1 I *L 0.0006 *D OAI21xp5_ASAP7_75t_SL
*I *619:Y O *L 0.0000 *D NAND2xp5_ASAP7_75t_SL

*CAP
1 *605:A1 0

*RES
1 *619:Y *605:A1 0
*END

*D_NET *146 0.000000

*CONN
*I *609:B I *L 0.0006 *D OAI21xp5_ASAP7_75t_SL
*I *620:Y O *L 0.0000 *D OA21x2_ASAP7_75t_SL

*CAP
1 *609:B 0

*RES
1 *620:Y *609:B 0
*END

*D_NET *147 0.000000

*CONN
*I *607:A1 I *L 0.0006 *D OAI21xp5_ASAP7_75t_SL
*I *621:Y O *L 0.0000 *D NAND2xp5_ASAP7_75t_SL

*CAP
1 *607:A1 0

*RES
1 *621:Y *607:A1 0
*END

*D_NET *148 0.000000

*CONN
*I *604:A1 I *L 0.0006 *D OAI21xp5_ASAP7_75t_SL
*I *617:B I *L 0.0006 *D OR2x2_ASAP7_75t_SL
*I *622:Y O *L 0.0000 *D INVx1_ASAP7_75t_SL

*CAP
1 *604:A1 0
2 *617:B 0

*RES
1 *622:Y *604:A1 0
2 *622:Y *617:B 0
*END

*D_NET *149 0.000000

*CONN
*I *608:A1 I *L 0.0006 *D OAI21xp5_ASAP7_75t_SL
*I *623:Y O *L 0.0000 *D OR2x2_ASAP7_75t_SL

*CAP
1 *608:A1 0

*RES
1 *623:Y *608:A1 0
*END

*D_NET *150 0.000000

*CONN
*I *747:A2 I *L 0.0006 *D OAI21xp5_ASAP7_75t_SL
*I *624:Y O *L 0.0000 *D NAND2xp5_ASAP7_75t_SL

*CAP
1 *747:A2 0

*RES
1 *624:Y *747:A2 0
*END

*D_NET *151 0.000000

*CONN
*I *606:A1 I *L 0.0006 *D OAI21xp5_ASAP7_75t_SL
*I *625:Y O *L 0.0000 *D NAND2xp5_ASAP7_75t_SL

*CAP
1 *606:A1 0

*RES
1 *625:Y *606:A1 0
*END

*D_NET *152 0.000000

*CONN
*I *868:A2 I *L 0.0006 *D AOI21xp5_ASAP7_75t_SL
*I *626:Y O *L 0.0000 *D NOR2xp33_ASAP7_75t_SL

*CAP
1 *868:A2 0

*RES
1 *626:Y *868:A2 0
*END

*D_NET *153 0.000000

*CONN
*I *612:A2 I *L 0.0006 *D OAI21xp5_ASAP7_75t_SL
*I *627:Y O *L 0.0000 *D NAND2xp5_ASAP7_75t_SL

*CAP
1 *612:A2 0

*RES
1 *627:Y *612:A2 0
*END

*D_NET *154 0.000000

*CONN
*I *625:A I *L 0.0005 *D NAND2xp5_ASAP7_75t_SL
*I *615:A2 I *L 0.0005 *D AOI221xp5_ASAP7_75t_SL
*I *631:Y O *L 0.0000 *D NOR2xp33_ASAP7_75t_SL

*CAP
1 *625:A 0
2 *615:A2 0

*RES
1 *631:Y *625:A 0
2 *631:Y *615:A2 0
*END

*D_NET *155 0.000000

*CONN
*I *949:A1 I *L 0.0006 *D OAI21xp5_ASAP7_75t_SL
*I *628:Y O *L 0.0000 *D OR2x2_ASAP7_75t_SL

*CAP
1 *949:A1 0

*RES
1 *628:Y *949:A1 0
*END

*D_NET *156 0.000000

*CONN
*I *963:A I *L 0.0007 *D INVx1_ASAP7_75t_SL
*I *629:Y O *L 0.0000 *D AND2x2_ASAP7_75t_SRAM

*CAP
1 *963:A 0

*RES
1 *629:Y *963:A 0
*END

*D_NET *157 0.000000

*CONN
*I *609:A1 I *L 0.0006 *D OAI21xp5_ASAP7_75t_SL
*I *630:Y O *L 0.0000 *D OR2x2_ASAP7_75t_SL

*CAP
1 *609:A1 0

*RES
1 *630:Y *609:A1 0
*END

*D_NET *158 0.000000

*CONN
*I *737:A I *L 0.0011 *D XNOR2xp5_ASAP7_75t_SL
*I *632:Y O *L 0.0000 *D NAND2xp5_ASAP7_75t_SL

*CAP
1 *737:A 0

*RES
1 *632:Y *737:A 0
*END

*D_NET *159 0.000000

*CONN
*I *664:A I *L 0.0011 *D XNOR2xp5_ASAP7_75t_SL
*I *633:Y O *L 0.0000 *D AOI21xp5_ASAP7_75t_SL

*CAP
1 *664:A 0

*RES
1 *633:Y *664:A 0
*END

*D_NET *160 0.000000

*CONN
*I *673:A I *L 0.0011 *D XNOR2xp5_ASAP7_75t_SL
*I *634:Y O *L 0.0000 *D AOI21xp5_ASAP7_75t_SL

*CAP
1 *673:A 0

*RES
1 *634:Y *673:A 0
*END

*D_NET *161 0.000000

*CONN
*I *667:A I *L 0.0011 *D XNOR2xp5_ASAP7_75t_SL
*I *635:Y O *L 0.0000 *D NOR2xp33_ASAP7_75t_SL

*CAP
1 *667:A 0

*RES
1 *635:Y *667:A 0
*END

*D_NET *162 0.000000

*CONN
*I *953:B I *L 0.0005 *D AOI21xp33_ASAP7_75t_SL
*I *629:B I *L 0.0005 *D AND2x2_ASAP7_75t_SRAM
*I *639:Y O *L 0.0000 *D AOI21xp33_ASAP7_75t_SL

*CAP
1 *953:B 0
2 *629:B 0

*RES
1 *639:Y *953:B 0
2 *639:Y *629:B 0
*END

*D_NET *163 0.000000

*CONN
*I *735:A I *L 0.0011 *D XNOR2xp5_ASAP7_75t_SL
*I *636:Y O *L 0.0000 *D NOR2xp33_ASAP7_75t_R

*CAP
1 *735:A 0

*RES
1 *636:Y *735:A 0
*END

*D_NET *164 0.000000

*CONN
*I *674:A I *L 0.0011 *D XNOR2xp5_ASAP7_75t_SL
*I *637:Y O *L 0.0000 *D NOR2xp33_ASAP7_75t_L

*CAP
1 *674:A 0

*RES
1 *637:Y *674:A 0
*END

*D_NET *165 0.000000

*CONN
*I *669:A I *L 0.0011 *D XNOR2xp5_ASAP7_75t_SL
*I *638:Y O *L 0.0000 *D NOR2xp33_ASAP7_75t_SL

*CAP
1 *669:A 0

*RES
1 *638:Y *669:A 0
*END

*D_NET *166 0.000000

*CONN
*I *666:A I *L 0.0011 *D XNOR2xp5_ASAP7_75t_SL
*I *640:Y O *L 0.0000 *D NOR2xp33_ASAP7_75t_SL

*CAP
1 *666:A 0

*RES
1 *640:Y *666:A 0
*END

*D_NET *167 0.000000

*CONN
*I *671:A I *L 0.0011 *D XNOR2xp5_ASAP7_75t_SL
*I *641:Y O *L 0.0000 *D NOR2xp33_ASAP7_75t_SL

*CAP
1 *671:A 0

*RES
1 *641:Y *671:A 0
*END

*D_NET *168 0.000000

*CONN
*I *738:A I *L 0.0011 *D XNOR2xp5_ASAP7_75t_SL
*I *642:Y O *L 0.0000 *D NOR2xp33_ASAP7_75t_SL

*CAP
1 *738:A 0

*RES
1 *642:Y *738:A 0
*END

*D_NET *169 0.000000

*CONN
*I *672:A I *L 0.0011 *D XNOR2xp5_ASAP7_75t_SL
*I *643:Y O *L 0.0000 *D NOR2xp33_ASAP7_75t_SL

*CAP
1 *672:A 0

*RES
1 *643:Y *672:A 0
*END

*D_NET *170 0.000000

*CONN
*I *668:A I *L 0.0011 *D XNOR2xp5_ASAP7_75t_SL
*I *644:Y O *L 0.0000 *D NOR2xp67_ASAP7_75t_L

*CAP
1 *668:A 0

*RES
1 *644:Y *668:A 0
*END

*D_NET *171 0.000000

*CONN
*I *665:A I *L 0.0011 *D XNOR2xp5_ASAP7_75t_SL
*I *645:Y O *L 0.0000 *D NOR2xp67_ASAP7_75t_L

*CAP
1 *665:A 0

*RES
1 *645:Y *665:A 0
*END

*D_NET *172 0.000000

*CONN
*I *643:B I *L 0.0004 *D NOR2xp33_ASAP7_75t_SL
*I *646:Y O *L 0.0000 *D INVxp33_ASAP7_75t_SL

*CAP
1 *643:B 0

*RES
1 *646:Y *643:B 0
*END

*D_NET *173 0.000000

*CONN
*I *748:B I *L 0.0003 *D NAND2xp33_ASAP7_75t_R
*I *647:Y O *L 0.0000 *D INVxp67_ASAP7_75t_SL

*CAP
1 *748:B 0

*RES
1 *647:Y *748:B 0
*END

*D_NET *174 0.000000

*CONN
*I *644:B I *L 0.0007 *D NOR2xp67_ASAP7_75t_L
*I *648:Y O *L 0.0000 *D INVxp33_ASAP7_75t_SL

*CAP
1 *644:B 0

*RES
1 *648:Y *644:B 0
*END

*D_NET *175 0.000000

*CONN
*I *715:B I *L 0.0006 *D OAI21xp5_ASAP7_75t_L
*I *649:Y O *L 0.0000 *D NAND2xp5_ASAP7_75t_SL

*CAP
1 *715:B 0

*RES
1 *649:Y *715:B 0
*END

*D_NET *176 0.000000

*CONN
*I *662:B I *L 0.0004 *D NOR2xp33_ASAP7_75t_SL
*I *650:Y O *L 0.0000 *D INVxp33_ASAP7_75t_SL

*CAP
1 *662:B 0

*RES
1 *650:Y *662:B 0
*END

*D_NET *177 0.000000

*CONN
*I *645:B I *L 0.0007 *D NOR2xp67_ASAP7_75t_L
*I *651:Y O *L 0.0000 *D INVxp33_ASAP7_75t_SL

*CAP
1 *645:B 0

*RES
1 *651:Y *645:B 0
*END

*D_NET *178 0.000000

*CONN
*I *641:B I *L 0.0004 *D NOR2xp33_ASAP7_75t_SL
*I *652:Y O *L 0.0000 *D INVxp33_ASAP7_75t_SL

*CAP
1 *641:B 0

*RES
1 *652:Y *641:B 0
*END

*D_NET *179 0.000000

*CONN
*I *969:B I *L 0.0006 *D AOI21xp5_ASAP7_75t_SL
*I *638:B I *L 0.0004 *D NOR2xp33_ASAP7_75t_SL
*I *834:Y O *L 0.0000 *D INVx1_ASAP7_75t_SL

*CAP
1 *969:B 0
2 *638:B 0

*RES
1 *834:Y *969:B 0
2 *834:Y *638:B 0
*END

*D_NET *180 0.000000

*CONN
*I *653:A I *L 0.0005 *D INVxp67_ASAP7_75t_SL
*I *632:A I *L 0.0005 *D NAND2xp5_ASAP7_75t_SL
*I *715:A2 I *L 0.0006 *D OAI21xp5_ASAP7_75t_L
*I *656:Y O *L 0.0000 *D NAND2x1p5_ASAP7_75t_SL

*CAP
1 *653:A 0
2 *632:A 0
3 *715:A2 0

*RES
1 *656:Y *653:A 0
2 *656:Y *632:A 0
3 *656:Y *715:A2 0
*END

*D_NET *181 0.000000

*CONN
*I *615:C I *L 0.0005 *D AOI221xp5_ASAP7_75t_SL
*I *653:Y O *L 0.0000 *D INVxp67_ASAP7_75t_SL

*CAP
1 *615:C 0

*RES
1 *653:Y *615:C 0
*END

*D_NET *182 0.000000

*CONN
*I *640:B I *L 0.0004 *D NOR2xp33_ASAP7_75t_SL
*I *654:Y O *L 0.0000 *D INVxp33_ASAP7_75t_SL

*CAP
1 *640:B 0

*RES
1 *654:Y *640:B 0
*END

*D_NET *183 0.000000

*CONN
*I *632:B I *L 0.0006 *D NAND2xp5_ASAP7_75t_SL
*I *615:B2 I *L 0.0005 *D AOI221xp5_ASAP7_75t_SL
*I *655:Y O *L 0.0000 *D INVxp67_ASAP7_75t_SL

*CAP
1 *632:B 0
2 *615:B2 0

*RES
1 *655:Y *632:B 0
2 *655:Y *615:B2 0
*END

*D_NET *184 0.000000

*CONN
*I *833:A I *L 0.0004 *D INVxp67_ASAP7_75t_SRAM
*I *824:C I *L 0.0005 *D NOR4xp25_ASAP7_75t_SL
*I *785:B I *L 0.0005 *D NOR3xp33_ASAP7_75t_SL
*I *722:B I *L 0.0016 *D NOR2x1p5_ASAP7_75t_SL
*I *638:A I *L 0.0004 *D NOR2xp33_ASAP7_75t_SL
*I *617:A I *L 0.0005 *D OR2x2_ASAP7_75t_SL
*I *657:Y O *L 0.0000 *D NOR2x1p5_ASAP7_75t_L

*CAP
1 *833:A 0
2 *824:C 0
3 *785:B 0
4 *722:B 0
5 *638:A 0
6 *617:A 0

*RES
1 *657:Y *833:A 0
2 *657:Y *824:C 0
3 *657:Y *785:B 0
4 *657:Y *722:B 0
5 *657:Y *638:A 0
6 *657:Y *617:A 0
*END

*D_NET *185 0.000000

*CONN
*I *759:B I *L 0.0011 *D XOR2xp5_ASAP7_75t_SL
*P *34 I

*CAP
1 *759:B 0

*RES
1 *34 *759:B 0
*END

*D_NET *186 0.000000

*CONN
*I *727:A I *L 0.0005 *D INVxp67_ASAP7_75t_SL
*I *687:B I *L 0.0011 *D NOR2x1_ASAP7_75t_SL
*P *35 I

*CAP
1 *727:A 0
2 *687:B 0

*RES
1 *35 *727:A 0
2 *35 *687:B 0
*END

*D_NET *187 0.000000

*CONN
*I *786:B I *L 0.0009 *D HAxp5_ASAP7_75t_SL
*I *688:A I *L 0.0011 *D NOR2x1_ASAP7_75t_SL
*P *36 I

*CAP
1 *786:B 0
2 *688:A 0

*RES
1 *36 *786:B 0
2 *36 *688:A 0
*END

*D_NET *188 0.000000

*CONN
*I *693:A I *L 0.0005 *D NAND2xp5_ASAP7_75t_SL
*I *684:B I *L 0.0016 *D NOR2x1p5_ASAP7_75t_SL
*P *37 I

*CAP
1 *693:A 0
2 *684:B 0

*RES
1 *37 *693:A 0
2 *37 *684:B 0
*END

*D_NET *189 0.000000

*CONN
*I *783:A1 I *L 0.0006 *D OA22x2_ASAP7_75t_SL
*I *690:B I *L 0.0011 *D NOR2x1_ASAP7_75t_SL
*I *691:B I *L 0.0006 *D NAND2xp5_ASAP7_75t_SL
*P *38 I

*CAP
1 *783:A1 0
2 *690:B 0
3 *691:B 0

*RES
1 *38 *783:A1 0
2 *38 *690:B 0
3 *38 *691:B 0
*END

*D_NET *190 0.000000

*CONN
*I *783:B2 I *L 0.0006 *D OA22x2_ASAP7_75t_SL
*I *724:A I *L 0.0003 *D HB1xp67_ASAP7_75t_SL
*I *721:A I *L 0.0005 *D NAND2xp5_ASAP7_75t_SL
*P *39 I

*CAP
1 *783:B2 0
2 *724:A 0
3 *721:A 0

*RES
1 *39 *783:B2 0
2 *39 *724:A 0
3 *39 *721:A 0
*END

*D_NET *191 0.000000

*CONN
*I *773:B I *L 0.0016 *D NOR2x1p5_ASAP7_75t_SL
*I *720:A I *L 0.0005 *D NAND2xp5_ASAP7_75t_SL
*I *634:A2 I *L 0.0006 *D AOI21xp5_ASAP7_75t_SL
*P *40 I

*CAP
1 *773:B 0
2 *720:A 0
3 *634:A2 0

*RES
1 *40 *773:B 0
2 *40 *720:A 0
3 *40 *634:A2 0
*END

*D_NET *192 0.000000

*CONN
*I *719:B I *L 0.0006 *D NAND2xp5_ASAP7_75t_SL
*I *657:A I *L 0.0015 *D NOR2x1p5_ASAP7_75t_L
*P *41 I

*CAP
1 *719:B 0
2 *657:A 0

*RES
1 *41 *719:B 0
2 *41 *657:A 0
*END

*D_NET *193 0.000000

*CONN
*I *788:A I *L 0.0013 *D INVx2_ASAP7_75t_SL
*I *682:B I *L 0.0011 *D NOR2x1_ASAP7_75t_SL
*I *649:B I *L 0.0006 *D NAND2xp5_ASAP7_75t_SL
*I *633:A2 I *L 0.0006 *D AOI21xp5_ASAP7_75t_SL
*P *42 I

*CAP
1 *788:A 0
2 *682:B 0
3 *649:B 0
4 *633:A2 0

*RES
1 *42 *788:A 0
2 *42 *682:B 0
3 *42 *649:B 0
4 *42 *633:A2 0
*END

*D_NET *194 0.000000

*CONN
*I *683:B I *L 0.0011 *D NOR2x1_ASAP7_75t_SL
*I *656:B I *L 0.0016 *D NAND2x1p5_ASAP7_75t_SL
*I *790:A I *L 0.0013 *D INVx2_ASAP7_75t_SL
*P *43 I

*CAP
1 *683:B 0
2 *656:B 0
3 *790:A 0

*RES
1 *43 *683:B 0
2 *43 *656:B 0
3 *43 *790:A 0
*END

*D_NET *195 0.000000

*CONN
*I *977:A2 I *L 0.0006 *D OA22x2_ASAP7_75t_SL
*I *883:A I *L 0.0003 *D HB1xp67_ASAP7_75t_SL
*I *820:A I *L 0.0011 *D NOR2x1_ASAP7_75t_SL
*I *821:B I *L 0.0016 *D NAND2x1p5_ASAP7_75t_L
*P *44 I

*CAP
1 *977:A2 0
2 *883:A 0
3 *820:A 0
4 *821:B 0

*RES
1 *44 *977:A2 0
2 *44 *883:A 0
3 *44 *820:A 0
4 *44 *821:B 0
*END

*D_NET *196 0.000000

*CONN
*I *888:A I *L 0.0003 *D HB1xp67_ASAP7_75t_SL
*I *977:B1 I *L 0.0006 *D OA22x2_ASAP7_75t_SL
*I *819:B I *L 0.0016 *D NAND2x1p5_ASAP7_75t_SL
*P *45 I

*CAP
1 *888:A 0
2 *977:B1 0
3 *819:B 0

*RES
1 *45 *888:A 0
2 *45 *977:B1 0
3 *45 *819:B 0
*END

*D_NET *197 0.000000

*CONN
*I *799:A2 I *L 0.0013 *D OAI22x1_ASAP7_75t_SL
*I *795:A I *L 0.0011 *D NOR2x1_ASAP7_75t_SL
*I *916:B I *L 0.0016 *D NAND2x1p5_ASAP7_75t_SL
*P *46 I

*CAP
1 *799:A2 0
2 *795:A 0
3 *916:B 0

*RES
1 *46 *799:A2 0
2 *46 *795:A 0
3 *46 *916:B 0
*END

*D_NET *198 0.000000

*CONN
*I *686:B I *L 0.0011 *D NOR2x1_ASAP7_75t_SL
*I *794:B I *L 0.0016 *D NAND2x1p5_ASAP7_75t_SL
*I *799:B2 I *L 0.0012 *D OAI22x1_ASAP7_75t_SL
*P *47 I

*CAP
1 *686:B 0
2 *794:B 0
3 *799:B2 0

*RES
1 *47 *686:B 0
2 *47 *794:B 0
3 *47 *799:B2 0
*END

*D_NET *199 0.000000

*CONN
*I *815:A I *L 0.0011 *D NAND2x1_ASAP7_75t_SL
*I *798:A2 I *L 0.0006 *D OAI22xp5_ASAP7_75t_SL
*I *639:A2 I *L 0.0004 *D AOI21xp33_ASAP7_75t_SL
*I *813:B I *L 0.0016 *D NOR2x1p5_ASAP7_75t_SL
*P *48 I

*CAP
1 *815:A 0
2 *798:A2 0
3 *639:A2 0
4 *813:B 0

*RES
1 *48 *815:A 0
2 *48 *798:A2 0
3 *48 *639:A2 0
4 *48 *813:B 0
*END

*D_NET *200 0.000000

*CONN
*I *798:B2 I *L 0.0006 *D OAI22xp5_ASAP7_75t_SL
*I *814:B I *L 0.0016 *D NAND2x1p5_ASAP7_75t_SL
*I *979:A I *L 0.0003 *D HB1xp67_ASAP7_75t_SL
*P *49 I

*CAP
1 *798:B2 0
2 *814:B 0
3 *979:A 0

*RES
1 *49 *798:B2 0
2 *49 *814:B 0
3 *49 *979:A 0
*END

*D_NET *201 0.000000

*CONN
*I *876:A I *L 0.0019 *D INVx3_ASAP7_75t_SL
*I *678:A I *L 0.0011 *D NOR2x1_ASAP7_75t_SL
*I *874:B I *L 0.0016 *D NAND2x1p5_ASAP7_75t_SL
*P *50 I

*CAP
1 *876:A 0
2 *678:A 0
3 *874:B 0

*RES
1 *50 *876:A 0
2 *50 *678:A 0
3 *50 *874:B 0
*END

*D_NET *202 0.000000

*CONN
*I *846:A I *L 0.0019 *D INVx3_ASAP7_75t_SL
*I *699:A I *L 0.0005 *D NAND2xp5_ASAP7_75t_SL
*I *723:A I *L 0.0003 *D HB1xp67_ASAP7_75t_SL
*P *51 I

*CAP
1 *846:A 0
2 *699:A 0
3 *723:A 0

*RES
1 *51 *846:A 0
2 *51 *699:A 0
3 *51 *723:A 0
*END

*D_NET *203 0.000000

*CONN
*I *774:B I *L 0.0016 *D NOR2x1p5_ASAP7_75t_L
*I *706:A I *L 0.0025 *D INVx4_ASAP7_75t_SL
*I *698:A I *L 0.0016 *D NAND2x1p5_ASAP7_75t_SL
*I *777:B I *L 0.0006 *D AND2x2_ASAP7_75t_SL
*P *52 I

*CAP
1 *774:B 0
2 *706:A 0
3 *698:A 0
4 *777:B 0

*RES
1 *52 *774:B 0
2 *52 *706:A 0
3 *52 *698:A 0
4 *52 *777:B 0
*END

*D_NET *204 0.000000

*CONN
*I *707:B I *L 0.0011 *D NOR2x1_ASAP7_75t_SL
*I *776:B I *L 0.0006 *D AND2x2_ASAP7_75t_SL
*I *697:B I *L 0.0011 *D NAND2x1_ASAP7_75t_SL
*I *704:A I *L 0.0013 *D INVx2_ASAP7_75t_SL
*P *53 I

*CAP
1 *707:B 0
2 *776:B 0
3 *697:B 0
4 *704:A 0

*RES
1 *53 *707:B 0
2 *53 *776:B 0
3 *53 *697:B 0
4 *53 *704:A 0
*END

*D_NET *205 0.000000

*CONN
*I *840:A I *L 0.0011 *D XOR2xp5_ASAP7_75t_SL
*I *839:B I *L 0.0011 *D NOR2x1_ASAP7_75t_SL
*I *836:B I *L 0.0016 *D NOR2x1p5_ASAP7_75t_L
*I *845:B I *L 0.0016 *D NAND2x1p5_ASAP7_75t_SL
*I *844:A I *L 0.0015 *D NOR2x1p5_ASAP7_75t_L
*P *54 I

*CAP
1 *840:A 0
2 *839:B 0
3 *836:B 0
4 *845:B 0
5 *844:A 0

*RES
1 *54 *840:A 0
2 *54 *839:B 0
3 *54 *836:B 0
4 *54 *845:B 0
5 *54 *844:A 0
*END

*D_NET *206 0.000000

*CONN
*I *822:B I *L 0.0016 *D NOR2x1p5_ASAP7_75t_SL
*I *843:B I *L 0.0016 *D NAND2x1p5_ASAP7_75t_SL
*I *837:A I *L 0.0007 *D INVx1_ASAP7_75t_SL
*I *885:A I *L 0.0003 *D HB1xp67_ASAP7_75t_SL
*P *55 I

*CAP
1 *822:B 0
2 *843:B 0
3 *837:A 0
4 *885:A 0

*RES
1 *55 *822:B 0
2 *55 *843:B 0
3 *55 *837:A 0
4 *55 *885:A 0
*END

*D_NET *207 0.000000

*CONN
*I *932:A I *L 0.0016 *D NOR2x1p5_ASAP7_75t_SL
*I *918:A I *L 0.0011 *D XOR2xp5_ASAP7_75t_SL
*I *865:B2 I *L 0.0012 *D OAI22x1_ASAP7_75t_SL
*I *933:B I *L 0.0016 *D NAND2x1p5_ASAP7_75t_SL
*P *56 I

*CAP
1 *932:A 0
2 *918:A 0
3 *865:B2 0
4 *933:B 0

*RES
1 *56 *932:A 0
2 *56 *918:A 0
3 *56 *865:B2 0
4 *56 *933:B 0
*END

*D_NET *208 0.000000

*CONN
*I *931:A I *L 0.0016 *D NAND2x1p5_ASAP7_75t_SL
*I *865:A2 I *L 0.0013 *D OAI22x1_ASAP7_75t_SL
*I *890:A I *L 0.0003 *D HB1xp67_ASAP7_75t_SL
*P *57 I

*CAP
1 *931:A 0
2 *865:A2 0
3 *890:A 0

*RES
1 *57 *931:A 0
2 *57 *865:A2 0
3 *57 *890:A 0
*END

*D_NET *209 0.000000

*CONN
*I *922:A I *L 0.0016 *D NAND2x1p5_ASAP7_75t_SL
*I *804:B I *L 0.0022 *D NOR2x2_ASAP7_75t_SL
*I *810:A2 I *L 0.0013 *D OAI22x1_ASAP7_75t_L
*I *924:A I *L 0.0005 *D INVxp67_ASAP7_75t_SL
*P *58 I

*CAP
1 *922:A 0
2 *804:B 0
3 *810:A2 0
4 *924:A 0

*RES
1 *58 *922:A 0
2 *58 *804:B 0
3 *58 *810:A2 0
4 *58 *924:A 0
*END

*D_NET *210 0.000000

*CONN
*I *805:B I *L 0.0016 *D NOR2x1p5_ASAP7_75t_SL
*I *808:A I *L 0.0016 *D NAND2x1p5_ASAP7_75t_L
*I *810:B2 I *L 0.0012 *D OAI22x1_ASAP7_75t_L
*I *702:B I *L 0.0006 *D NAND2xp5_ASAP7_75t_SL
*P *59 I

*CAP
1 *805:B 0
2 *808:A 0
3 *810:B2 0
4 *702:B 0

*RES
1 *59 *805:B 0
2 *59 *808:A 0
3 *59 *810:B2 0
4 *59 *702:B 0
*END

*D_NET *211 0.000000

*CONN
*I *807:A I *L 0.0016 *D NAND2x1p5_ASAP7_75t_SL
*I *956:B I *L 0.0022 *D NOR2x2_ASAP7_75t_SL
*I *959:B I *L 0.0016 *D NOR2x1p5_ASAP7_75t_L
*I *752:A2 I *L 0.0006 *D AOI21xp5_ASAP7_75t_SL
*P *60 I

*CAP
1 *807:A 0
2 *956:B 0
3 *959:B 0
4 *752:A2 0

*RES
1 *60 *807:A 0
2 *60 *956:B 0
3 *60 *959:B 0
4 *60 *752:A2 0
*END

*D_NET *212 0.000000

*CONN
*I *806:A I *L 0.0016 *D NAND2x1p5_ASAP7_75t_SL
*I *903:A I *L 0.0005 *D NAND2xp5_ASAP7_75t_SL
*I *732:A I *L 0.0011 *D NOR2x1_ASAP7_75t_SL
*I *708:A I *L 0.0011 *D NOR2x1_ASAP7_75t_SL
*P *61 I

*CAP
1 *806:A 0
2 *903:A 0
3 *732:A 0
4 *708:A 0

*RES
1 *61 *806:A 0
2 *61 *903:A 0
3 *61 *732:A 0
4 *61 *708:A 0
*END

*D_NET *213 0.000000

*CONN
*I *882:A I *L 0.0016 *D NAND2x1p5_ASAP7_75t_SL
*I *919:B I *L 0.0011 *D XOR2xp5_ASAP7_75t_SL
*I *911:A1 I *L 0.0012 *D OAI22x1_ASAP7_75t_SL
*I *881:B I *L 0.0016 *D NOR2x1p5_ASAP7_75t_SL
*P *62 I

*CAP
1 *882:A 0
2 *919:B 0
3 *911:A1 0
4 *881:B 0

*RES
1 *62 *882:A 0
2 *62 *919:B 0
3 *62 *911:A1 0
4 *62 *881:B 0
*END

*D_NET *214 0.000000

*CONN
*I *775:B I *L 0.0016 *D NOR2x1p5_ASAP7_75t_L
*I *680:B I *L 0.0016 *D NAND2x1p5_ASAP7_75t_SL
*I *911:B2 I *L 0.0012 *D OAI22x1_ASAP7_75t_SL
*I *880:A I *L 0.0016 *D NAND2x1p5_ASAP7_75t_L
*P *63 I

*CAP
1 *775:B 0
2 *680:B 0
3 *911:B2 0
4 *880:A 0

*RES
1 *63 *775:B 0
2 *63 *680:B 0
3 *63 *911:B2 0
4 *63 *880:A 0
*END

*D_NET *215 0.000000

*CONN
*I *893:B I *L 0.0011 *D NOR2x1_ASAP7_75t_SL
*I *892:B I *L 0.0017 *D XOR2x1_ASAP7_75t_SL
*I *751:B I *L 0.0006 *D NAND2xp5_ASAP7_75t_SL
*I *711:B I *L 0.0016 *D NOR2x1p5_ASAP7_75t_SL
*I *709:A I *L 0.0016 *D NAND2x1p5_ASAP7_75t_SL
*P *64 I

*CAP
1 *893:B 0
2 *892:B 0
3 *751:B 0
4 *711:B 0
5 *709:A 0

*RES
1 *64 *893:B 0
2 *64 *892:B 0
3 *64 *751:B 0
4 *64 *711:B 0
5 *64 *709:A 0
*END

*D_NET *216 0.000000

*CONN
*I *772:B I *L 0.0006 *D AND2x2_ASAP7_75t_SL
*I *739:A I *L 0.0011 *D XNOR2xp5_ASAP7_75t_SL
*I *750:A I *L 0.0005 *D NAND2xp5_ASAP7_75t_SL
*I *710:A I *L 0.0011 *D NAND2x1_ASAP7_75t_SL
*P *65 I

*CAP
1 *772:B 0
2 *739:A 0
3 *750:A 0
4 *710:A 0

*RES
1 *65 *772:B 0
2 *65 *739:A 0
3 *65 *750:A 0
4 *65 *710:A 0
*END

*D_NET *217 0.000000

*CONN
*I *759:A I *L 0.0011 *D XOR2xp5_ASAP7_75t_SL
*P *2 I

*CAP
1 *759:A 0

*RES
1 *2 *759:A 0
*END

*D_NET *218 0.000000

*CONN
*I *729:A I *L 0.0005 *D INVxp67_ASAP7_75t_SL
*I *687:A I *L 0.0011 *D NOR2x1_ASAP7_75t_SL
*P *3 I

*CAP
1 *729:A 0
2 *687:A 0

*RES
1 *3 *729:A 0
2 *3 *687:A 0
*END

*D_NET *219 0.000000

*CONN
*I *786:A I *L 0.0011 *D HAxp5_ASAP7_75t_SL
*I *688:B I *L 0.0011 *D NOR2x1_ASAP7_75t_SL
*P *4 I

*CAP
1 *786:A 0
2 *688:B 0

*RES
1 *4 *786:A 0
2 *4 *688:B 0
*END

*D_NET *220 0.000000

*CONN
*I *693:B I *L 0.0006 *D NAND2xp5_ASAP7_75t_SL
*I *684:A I *L 0.0016 *D NOR2x1p5_ASAP7_75t_SL
*P *5 I

*CAP
1 *693:B 0
2 *684:A 0

*RES
1 *5 *693:B 0
2 *5 *684:A 0
*END

*D_NET *221 0.000000

*CONN
*I *783:A2 I *L 0.0006 *D OA22x2_ASAP7_75t_SL
*I *690:A I *L 0.0011 *D NOR2x1_ASAP7_75t_SL
*I *691:A I *L 0.0005 *D NAND2xp5_ASAP7_75t_SL
*P *6 I

*CAP
1 *783:A2 0
2 *690:A 0
3 *691:A 0

*RES
1 *6 *783:A2 0
2 *6 *690:A 0
3 *6 *691:A 0
*END

*D_NET *222 0.000000

*CONN
*I *783:B1 I *L 0.0006 *D OA22x2_ASAP7_75t_SL
*I *725:A I *L 0.0003 *D HB1xp67_ASAP7_75t_SL
*I *721:B I *L 0.0006 *D NAND2xp5_ASAP7_75t_SL
*P *7 I

*CAP
1 *783:B1 0
2 *725:A 0
3 *721:B 0

*RES
1 *7 *783:B1 0
2 *7 *725:A 0
3 *7 *721:B 0
*END

*D_NET *223 0.000000

*CONN
*I *773:A I *L 0.0016 *D NOR2x1p5_ASAP7_75t_SL
*I *720:B I *L 0.0006 *D NAND2xp5_ASAP7_75t_SL
*I *634:A1 I *L 0.0006 *D AOI21xp5_ASAP7_75t_SL
*P *8 I

*CAP
1 *773:A 0
2 *720:B 0
3 *634:A1 0

*RES
1 *8 *773:A 0
2 *8 *720:B 0
3 *8 *634:A1 0
*END

*D_NET *224 0.000000

*CONN
*I *657:B I *L 0.0016 *D NOR2x1p5_ASAP7_75t_L
*I *719:A I *L 0.0005 *D NAND2xp5_ASAP7_75t_SL
*P *9 I

*CAP
1 *657:B 0
2 *719:A 0

*RES
1 *9 *657:B 0
2 *9 *719:A 0
*END

*D_NET *225 0.000000

*CONN
*I *789:A I *L 0.0007 *D INVx1_ASAP7_75t_SL
*I *682:A I *L 0.0011 *D NOR2x1_ASAP7_75t_SL
*I *649:A I *L 0.0005 *D NAND2xp5_ASAP7_75t_SL
*I *633:A1 I *L 0.0006 *D AOI21xp5_ASAP7_75t_SL
*P *10 I

*CAP
1 *789:A 0
2 *682:A 0
3 *649:A 0
4 *633:A1 0

*RES
1 *10 *789:A 0
2 *10 *682:A 0
3 *10 *649:A 0
4 *10 *633:A1 0
*END

*D_NET *226 0.000000

*CONN
*I *656:A I *L 0.0016 *D NAND2x1p5_ASAP7_75t_SL
*I *683:A I *L 0.0011 *D NOR2x1_ASAP7_75t_SL
*I *791:A I *L 0.0007 *D INVx1_ASAP7_75t_SL
*P *11 I

*CAP
1 *656:A 0
2 *683:A 0
3 *791:A 0

*RES
1 *11 *656:A 0
2 *11 *683:A 0
3 *11 *791:A 0
*END

*D_NET *227 0.000000

*CONN
*I *977:A1 I *L 0.0006 *D OA22x2_ASAP7_75t_SL
*I *884:A I *L 0.0003 *D HB1xp67_ASAP7_75t_SL
*I *820:B I *L 0.0011 *D NOR2x1_ASAP7_75t_SL
*I *821:A I *L 0.0016 *D NAND2x1p5_ASAP7_75t_L
*P *12 I

*CAP
1 *977:A1 0
2 *884:A 0
3 *820:B 0
4 *821:A 0

*RES
1 *12 *977:A1 0
2 *12 *884:A 0
3 *12 *820:B 0
4 *12 *821:A 0
*END

*D_NET *228 0.000000

*CONN
*I *977:B2 I *L 0.0006 *D OA22x2_ASAP7_75t_SL
*I *889:A I *L 0.0003 *D HB1xp67_ASAP7_75t_SL
*I *819:A I *L 0.0016 *D NAND2x1p5_ASAP7_75t_SL
*P *13 I

*CAP
1 *977:B2 0
2 *889:A 0
3 *819:A 0

*RES
1 *13 *977:B2 0
2 *13 *889:A 0
3 *13 *819:A 0
*END

*D_NET *229 0.000000

*CONN
*I *799:A1 I *L 0.0012 *D OAI22x1_ASAP7_75t_SL
*I *916:A I *L 0.0016 *D NAND2x1p5_ASAP7_75t_SL
*I *795:B I *L 0.0011 *D NOR2x1_ASAP7_75t_SL
*P *14 I

*CAP
1 *799:A1 0
2 *916:A 0
3 *795:B 0

*RES
1 *14 *799:A1 0
2 *14 *916:A 0
3 *14 *795:B 0
*END

*D_NET *230 0.000000

*CONN
*I *686:A I *L 0.0011 *D NOR2x1_ASAP7_75t_SL
*I *794:A I *L 0.0016 *D NAND2x1p5_ASAP7_75t_SL
*I *799:B1 I *L 0.0011 *D OAI22x1_ASAP7_75t_SL
*P *15 I

*CAP
1 *686:A 0
2 *794:A 0
3 *799:B1 0

*RES
1 *15 *686:A 0
2 *15 *794:A 0
3 *15 *799:B1 0
*END

*D_NET *231 0.000000

*CONN
*I *798:A1 I *L 0.0006 *D OAI22xp5_ASAP7_75t_SL
*I *813:A I *L 0.0016 *D NOR2x1p5_ASAP7_75t_SL
*I *815:B I *L 0.0011 *D NAND2x1_ASAP7_75t_SL
*I *639:A1 I *L 0.0004 *D AOI21xp33_ASAP7_75t_SL
*P *16 I

*CAP
1 *798:A1 0
2 *813:A 0
3 *815:B 0
4 *639:A1 0

*RES
1 *16 *798:A1 0
2 *16 *813:A 0
3 *16 *815:B 0
4 *16 *639:A1 0
*END

*D_NET *232 0.000000

*CONN
*I *798:B1 I *L 0.0006 *D OAI22xp5_ASAP7_75t_SL
*I *814:A I *L 0.0016 *D NAND2x1p5_ASAP7_75t_SL
*I *978:A I *L 0.0003 *D HB1xp67_ASAP7_75t_SL
*P *17 I

*CAP
1 *798:B1 0
2 *814:A 0
3 *978:A 0

*RES
1 *17 *798:B1 0
2 *17 *814:A 0
3 *17 *978:A 0
*END

*D_NET *233 0.000000

*CONN
*I *872:A I *L 0.0013 *D INVx2_ASAP7_75t_SL
*I *874:A I *L 0.0016 *D NAND2x1p5_ASAP7_75t_SL
*I *678:B I *L 0.0011 *D NOR2x1_ASAP7_75t_SL
*P *18 I

*CAP
1 *872:A 0
2 *874:A 0
3 *678:B 0

*RES
1 *18 *872:A 0
2 *18 *874:A 0
3 *18 *678:B 0
*END

*D_NET *234 0.000000

*CONN
*I *878:A I *L 0.0025 *D INVx4_ASAP7_75t_SL
*I *699:B I *L 0.0006 *D NAND2xp5_ASAP7_75t_SL
*I *879:A I *L 0.0003 *D HB1xp67_ASAP7_75t_SL
*P *19 I

*CAP
1 *878:A 0
2 *699:B 0
3 *879:A 0

*RES
1 *19 *878:A 0
2 *19 *699:B 0
3 *19 *879:A 0
*END

*D_NET *235 0.000000

*CONN
*I *774:A I *L 0.0015 *D NOR2x1p5_ASAP7_75t_L
*I *705:A I *L 0.0013 *D INVx2_ASAP7_75t_SL
*I *777:A I *L 0.0005 *D AND2x2_ASAP7_75t_SL
*I *698:B I *L 0.0016 *D NAND2x1p5_ASAP7_75t_SL
*P *20 I

*CAP
1 *774:A 0
2 *705:A 0
3 *777:A 0
4 *698:B 0

*RES
1 *20 *774:A 0
2 *20 *705:A 0
3 *20 *777:A 0
4 *20 *698:B 0
*END

*D_NET *236 0.000000

*CONN
*I *703:A I *L 0.0013 *D INVx2_ASAP7_75t_SL
*I *697:A I *L 0.0011 *D NAND2x1_ASAP7_75t_SL
*I *887:A I *L 0.0003 *D HB1xp67_ASAP7_75t_SL
*P *21 I

*CAP
1 *703:A 0
2 *697:A 0
3 *887:A 0

*RES
1 *21 *703:A 0
2 *21 *697:A 0
3 *21 *887:A 0
*END

*D_NET *237 0.000000

*CONN
*I *840:B I *L 0.0011 *D XOR2xp5_ASAP7_75t_SL
*I *839:A I *L 0.0011 *D NOR2x1_ASAP7_75t_SL
*I *844:B I *L 0.0016 *D NOR2x1p5_ASAP7_75t_L
*I *836:A I *L 0.0015 *D NOR2x1p5_ASAP7_75t_L
*I *845:A I *L 0.0016 *D NAND2x1p5_ASAP7_75t_SL
*P *22 I

*CAP
1 *840:B 0
2 *839:A 0
3 *844:B 0
4 *836:A 0
5 *845:A 0

*RES
1 *22 *840:B 0
2 *22 *839:A 0
3 *22 *844:B 0
4 *22 *836:A 0
5 *22 *845:A 0
*END

*D_NET *238 0.000000

*CONN
*I *822:A I *L 0.0016 *D NOR2x1p5_ASAP7_75t_SL
*I *843:A I *L 0.0016 *D NAND2x1p5_ASAP7_75t_SL
*I *838:A I *L 0.0007 *D INVx1_ASAP7_75t_SL
*I *886:A I *L 0.0003 *D HB1xp67_ASAP7_75t_SL
*P *23 I

*CAP
1 *822:A 0
2 *843:A 0
3 *838:A 0
4 *886:A 0

*RES
1 *23 *822:A 0
2 *23 *843:A 0
3 *23 *838:A 0
4 *23 *886:A 0
*END

*D_NET *239 0.000000

*CONN
*I *932:B I *L 0.0016 *D NOR2x1p5_ASAP7_75t_SL
*I *918:B I *L 0.0011 *D XOR2xp5_ASAP7_75t_SL
*I *865:B1 I *L 0.0011 *D OAI22x1_ASAP7_75t_SL
*I *933:A I *L 0.0016 *D NAND2x1p5_ASAP7_75t_SL
*P *24 I

*CAP
1 *932:B 0
2 *918:B 0
3 *865:B1 0
4 *933:A 0

*RES
1 *24 *932:B 0
2 *24 *918:B 0
3 *24 *865:B1 0
4 *24 *933:A 0
*END

*D_NET *240 0.000000

*CONN
*I *931:B I *L 0.0016 *D NAND2x1p5_ASAP7_75t_SL
*I *865:A1 I *L 0.0012 *D OAI22x1_ASAP7_75t_SL
*I *927:A I *L 0.0003 *D HB1xp67_ASAP7_75t_SL
*P *25 I

*CAP
1 *931:B 0
2 *865:A1 0
3 *927:A 0

*RES
1 *25 *931:B 0
2 *25 *865:A1 0
3 *25 *927:A 0
*END

*D_NET *241 0.000000

*CONN
*I *804:A I *L 0.0020 *D NOR2x2_ASAP7_75t_SL
*I *922:B I *L 0.0016 *D NAND2x1p5_ASAP7_75t_SL
*I *810:A1 I *L 0.0011 *D OAI22x1_ASAP7_75t_L
*I *926:A I *L 0.0005 *D INVxp67_ASAP7_75t_SL
*P *26 I

*CAP
1 *804:A 0
2 *922:B 0
3 *810:A1 0
4 *926:A 0

*RES
1 *26 *804:A 0
2 *26 *922:B 0
3 *26 *810:A1 0
4 *26 *926:A 0
*END

*D_NET *242 0.000000

*CONN
*I *805:A I *L 0.0016 *D NOR2x1p5_ASAP7_75t_SL
*I *810:B1 I *L 0.0010 *D OAI22x1_ASAP7_75t_L
*I *702:A I *L 0.0005 *D NAND2xp5_ASAP7_75t_SL
*I *808:B I *L 0.0016 *D NAND2x1p5_ASAP7_75t_L
*P *27 I

*CAP
1 *805:A 0
2 *810:B1 0
3 *702:A 0
4 *808:B 0

*RES
1 *27 *805:A 0
2 *27 *810:B1 0
3 *27 *702:A 0
4 *27 *808:B 0
*END

*D_NET *243 0.000000

*CONN
*I *807:B I *L 0.0016 *D NAND2x1p5_ASAP7_75t_SL
*I *956:A I *L 0.0020 *D NOR2x2_ASAP7_75t_SL
*I *959:A I *L 0.0015 *D NOR2x1p5_ASAP7_75t_L
*I *752:A1 I *L 0.0006 *D AOI21xp5_ASAP7_75t_SL
*P *28 I

*CAP
1 *807:B 0
2 *956:A 0
3 *959:A 0
4 *752:A1 0

*RES
1 *28 *807:B 0
2 *28 *956:A 0
3 *28 *959:A 0
4 *28 *752:A1 0
*END

*D_NET *244 0.000000

*CONN
*I *806:B I *L 0.0016 *D NAND2x1p5_ASAP7_75t_SL
*I *891:A I *L 0.0007 *D BUFx3_ASAP7_75t_SL
*I *708:B I *L 0.0011 *D NOR2x1_ASAP7_75t_SL
*P *29 I

*CAP
1 *806:B 0
2 *891:A 0
3 *708:B 0

*RES
1 *29 *806:B 0
2 *29 *891:A 0
3 *29 *708:B 0
*END

*D_NET *245 0.000000

*CONN
*I *882:B I *L 0.0016 *D NAND2x1p5_ASAP7_75t_SL
*I *919:A I *L 0.0011 *D XOR2xp5_ASAP7_75t_SL
*I *911:A2 I *L 0.0013 *D OAI22x1_ASAP7_75t_SL
*I *881:A I *L 0.0016 *D NOR2x1p5_ASAP7_75t_SL
*P *30 I

*CAP
1 *882:B 0
2 *919:A 0
3 *911:A2 0
4 *881:A 0

*RES
1 *30 *882:B 0
2 *30 *919:A 0
3 *30 *911:A2 0
4 *30 *881:A 0
*END

*D_NET *246 0.000000

*CONN
*I *775:A I *L 0.0015 *D NOR2x1p5_ASAP7_75t_L
*I *680:A I *L 0.0016 *D NAND2x1p5_ASAP7_75t_SL
*I *911:B1 I *L 0.0011 *D OAI22x1_ASAP7_75t_SL
*I *880:B I *L 0.0016 *D NAND2x1p5_ASAP7_75t_L
*P *31 I

*CAP
1 *775:A 0
2 *680:A 0
3 *911:B1 0
4 *880:B 0

*RES
1 *31 *775:A 0
2 *31 *680:A 0
3 *31 *911:B1 0
4 *31 *880:B 0
*END

*D_NET *247 0.000000

*CONN
*I *892:A I *L 0.0017 *D XOR2x1_ASAP7_75t_SL
*I *751:A I *L 0.0005 *D NAND2xp5_ASAP7_75t_SL
*I *893:A I *L 0.0011 *D NOR2x1_ASAP7_75t_SL
*I *709:B I *L 0.0016 *D NAND2x1p5_ASAP7_75t_SL
*I *711:A I *L 0.0016 *D NOR2x1p5_ASAP7_75t_SL
*P *32 I

*CAP
1 *892:A 0
2 *751:A 0
3 *893:A 0
4 *709:B 0
5 *711:A 0

*RES
1 *32 *892:A 0
2 *32 *751:A 0
3 *32 *893:A 0
4 *32 *709:B 0
5 *32 *711:A 0
*END

*D_NET *248 0.000000

*CONN
*I *739:B I *L 0.0009 *D XNOR2xp5_ASAP7_75t_SL
*I *772:A I *L 0.0005 *D AND2x2_ASAP7_75t_SL
*I *750:B I *L 0.0006 *D NAND2xp5_ASAP7_75t_SL
*I *710:B I *L 0.0011 *D NAND2x1_ASAP7_75t_SL
*P *33 I

*CAP
1 *739:B 0
2 *772:A 0
3 *750:B 0
4 *710:B 0

*RES
1 *33 *739:B 0
2 *33 *772:A 0
3 *33 *750:B 0
4 *33 *710:B 0
*END

*D_NET *249 0.000000

*CONN
*I *573:CLK I *L 0.0005 *D DFFHQNx1_ASAP7_75t_SL
*I *572:CLK I *L 0.0005 *D DFFHQNx1_ASAP7_75t_SL
*I *574:CLK I *L 0.0005 *D DFFHQNx1_ASAP7_75t_SL
*I *575:CLK I *L 0.0005 *D DFFHQNx1_ASAP7_75t_SL
*I *576:CLK I *L 0.0005 *D DFFHQNx1_ASAP7_75t_SL
*I *577:CLK I *L 0.0005 *D DFFHQNx1_ASAP7_75t_SL
*I *578:CLK I *L 0.0005 *D DFFHQNx1_ASAP7_75t_SL
*I *579:CLK I *L 0.0005 *D DFFHQNx1_ASAP7_75t_SL
*I *580:CLK I *L 0.0005 *D DFFHQNx1_ASAP7_75t_SL
*I *581:CLK I *L 0.0005 *D DFFHQNx1_ASAP7_75t_SL
*I *582:CLK I *L 0.0005 *D DFFHQNx1_ASAP7_75t_SL
*I *583:CLK I *L 0.0005 *D DFFHQNx1_ASAP7_75t_SL
*I *584:CLK I *L 0.0005 *D DFFHQNx1_ASAP7_75t_SL
*I *585:CLK I *L 0.0005 *D DFFHQNx1_ASAP7_75t_SL
*I *586:CLK I *L 0.0005 *D DFFHQNx1_ASAP7_75t_SL
*I *587:CLK I *L 0.0005 *D DFFHQNx1_ASAP7_75t_SL
*I *588:CLK I *L 0.0005 *D DFFHQNx1_ASAP7_75t_SL
*I *589:CLK I *L 0.0005 *D DFFHQNx1_ASAP7_75t_SL
*I *590:CLK I *L 0.0005 *D DFFHQNx1_ASAP7_75t_SL
*I *591:CLK I *L 0.0005 *D DFFHQNx1_ASAP7_75t_SL
*I *592:CLK I *L 0.0005 *D DFFHQNx1_ASAP7_75t_SL
*I *593:CLK I *L 0.0005 *D DFFHQNx1_ASAP7_75t_SL
*I *594:CLK I *L 0.0005 *D DFFHQNx1_ASAP7_75t_SL
*I *595:CLK I *L 0.0005 *D DFFHQNx1_ASAP7_75t_SL
*I *596:CLK I *L 0.0005 *D DFFHQNx1_ASAP7_75t_SL
*I *597:CLK I *L 0.0005 *D DFFHQNx1_ASAP7_75t_SL
*I *598:CLK I *L 0.0005 *D DFFHQNx1_ASAP7_75t_SL
*I *599:CLK I *L 0.0005 *D DFFHQNx1_ASAP7_75t_SL
*I *600:CLK I *L 0.0005 *D DFFHQNx1_ASAP7_75t_SL
*I *601:CLK I *L 0.0005 *D DFFHQNx1_ASAP7_75t_SL
*I *602:CLK I *L 0.0005 *D DFFHQNx1_ASAP7_75t_SL
*I *603:CLK I *L 0.0005 *D DFFHQNx1_ASAP7_75t_SL
*P *1 I

*CAP
1 *573:CLK 0
2 *572:CLK 0
3 *574:CLK 0
4 *575:CLK 0
5 *576:CLK 0
6 *577:CLK 0
7 *578:CLK 0
8 *579:CLK 0
9 *580:CLK 0
10 *581:CLK 0
11 *582:CLK 0
12 *583:CLK 0
13 *584:CLK 0
14 *585:CLK 0
15 *586:CLK 0
16 *587:CLK 0
17 *588:CLK 0
18 *589:CLK 0
19 *590:CLK 0
20 *591:CLK 0
21 *592:CLK 0
22 *593:CLK 0
23 *594:CLK 0
24 *595:CLK 0
25 *596:CLK 0
26 *597:CLK 0
27 *598:CLK 0
28 *599:CLK 0
29 *600:CLK 0
30 *601:CLK 0
31 *602:CLK 0
32 *603:CLK 0

*RES
1 *1 *573:CLK 0
2 *1 *572:CLK 0
3 *1 *574:CLK 0
4 *1 *575:CLK 0
5 *1 *576:CLK 0
6 *1 *577:CLK 0
7 *1 *578:CLK 0
8 *1 *579:CLK 0
9 *1 *580:CLK 0
10 *1 *581:CLK 0
11 *1 *582:CLK 0
12 *1 *583:CLK 0
13 *1 *584:CLK 0
14 *1 *585:CLK 0
15 *1 *586:CLK 0
16 *1 *587:CLK 0
17 *1 *588:CLK 0
18 *1 *589:CLK 0
19 *1 *590:CLK 0
20 *1 *591:CLK 0
21 *1 *592:CLK 0
22 *1 *593:CLK 0
23 *1 *594:CLK 0
24 *1 *595:CLK 0
25 *1 *596:CLK 0
26 *1 *597:CLK 0
27 *1 *598:CLK 0
28 *1 *599:CLK 0
29 *1 *600:CLK 0
30 *1 *601:CLK 0
31 *1 *602:CLK 0
32 *1 *603:CLK 0
*END

*D_NET *250 0.000000

*CONN
*I *765:A2 I *L 0.0005 *D OAI21xp33_ASAP7_75t_SL
*I *767:A I *L 0.0007 *D INVx1_ASAP7_75t_SL
*I *614:A2 I *L 0.0006 *D OA21x2_ASAP7_75t_SL
*I *681:Y O *L 0.0000 *D AOI21xp33_ASAP7_75t_SL

*CAP
1 *765:A2 0
2 *767:A 0
3 *614:A2 0

*RES
1 *681:Y *765:A2 0
2 *681:Y *767:A 0
3 *681:Y *614:A2 0
*END

*D_NET *251 0.000000

*CONN
*I *625:B I *L 0.0006 *D NAND2xp5_ASAP7_75t_SL
*I *658:Y O *L 0.0000 *D INVxp67_ASAP7_75t_SL

*CAP
1 *625:B 0

*RES
1 *658:Y *625:B 0
*END

*D_NET *252 0.000000

*CONN
*I *972:A2 I *L 0.0006 *D AOI21xp5_ASAP7_75t_SL
*I *621:A I *L 0.0005 *D NAND2xp5_ASAP7_75t_SL
*I *850:B I *L 0.0006 *D NAND2xp5_ASAP7_75t_SL
*I *722:Y O *L 0.0000 *D NOR2x1p5_ASAP7_75t_SL

*CAP
1 *972:A2 0
2 *621:A 0
3 *850:B 0

*RES
1 *722:Y *972:A2 0
2 *722:Y *621:A 0
3 *722:Y *850:B 0
*END

*D_NET *253 0.000000

*CONN
*I *624:B I *L 0.0006 *D NAND2xp5_ASAP7_75t_SL
*I *861:A2 I *L 0.0004 *D AOI21xp33_ASAP7_75t_SL
*I *659:Y O *L 0.0000 *D HB1xp67_ASAP7_75t_SL

*CAP
1 *624:B 0
2 *861:A2 0

*RES
1 *659:Y *624:B 0
2 *659:Y *861:A2 0
*END

*D_NET *254 0.000000

*CONN
*I *642:B I *L 0.0004 *D NOR2xp33_ASAP7_75t_SL
*I *660:Y O *L 0.0000 *D INVxp33_ASAP7_75t_SL

*CAP
1 *642:B 0

*RES
1 *660:Y *642:B 0
*END

*D_NET *255 0.000000

*CONN
*I *785:A I *L 0.0006 *D NOR3xp33_ASAP7_75t_SL
*I *635:A I *L 0.0004 *D NOR2xp33_ASAP7_75t_SL
*I *716:Y O *L 0.0000 *D INVx1_ASAP7_75t_SL

*CAP
1 *785:A 0
2 *635:A 0

*RES
1 *716:Y *785:A 0
2 *716:Y *635:A 0
*END

*D_NET *256 0.000000

*CONN
*I *746:B I *L 0.0004 *D NOR2xp33_ASAP7_75t_SL
*I *661:Y O *L 0.0000 *D INVxp33_ASAP7_75t_SL

*CAP
1 *746:B 0

*RES
1 *661:Y *746:B 0
*END

*D_NET *257 0.000000

*CONN
*I *763:A I *L 0.0011 *D XNOR2xp5_ASAP7_75t_SL
*I *662:Y O *L 0.0000 *D NOR2xp33_ASAP7_75t_SL

*CAP
1 *763:A 0

*RES
1 *662:Y *763:A 0
*END

*D_NET *258 0.000000

*CONN
*I *950:A1 I *L 0.0006 *D OAI21xp5_ASAP7_75t_SL
*I *647:A I *L 0.0005 *D INVxp67_ASAP7_75t_SL
*I *663:Y O *L 0.0000 *D NOR2x1_ASAP7_75t_SL

*CAP
1 *950:A1 0
2 *647:A 0

*RES
1 *663:Y *950:A1 0
2 *663:Y *647:A 0
*END

*D_NET *259 0.000000

*CONN
*I *579:D I *L 0.0006 *D DFFHQNx1_ASAP7_75t_SL
*I *664:Y O *L 0.0000 *D XNOR2xp5_ASAP7_75t_SL

*CAP
1 *579:D 0

*RES
1 *664:Y *579:D 0
*END

*D_NET *260 0.000000

*CONN
*I *582:D I *L 0.0006 *D DFFHQNx1_ASAP7_75t_SL
*I *665:Y O *L 0.0000 *D XNOR2xp5_ASAP7_75t_SL

*CAP
1 *582:D 0

*RES
1 *665:Y *582:D 0
*END

*D_NET *261 0.000000

*CONN
*I *598:D I *L 0.0006 *D DFFHQNx1_ASAP7_75t_SL
*I *666:Y O *L 0.0000 *D XNOR2xp5_ASAP7_75t_SL

*CAP
1 *598:D 0

*RES
1 *666:Y *598:D 0
*END

*D_NET *262 0.000000

*CONN
*I *590:D I *L 0.0006 *D DFFHQNx1_ASAP7_75t_SL
*I *667:Y O *L 0.0000 *D XNOR2xp5_ASAP7_75t_SL

*CAP
1 *590:D 0

*RES
1 *667:Y *590:D 0
*END

*D_NET *263 0.000000

*CONN
*I *574:D I *L 0.0006 *D DFFHQNx1_ASAP7_75t_SL
*I *668:Y O *L 0.0000 *D XNOR2xp5_ASAP7_75t_SL

*CAP
1 *574:D 0

*RES
1 *668:Y *574:D 0
*END

*D_NET *264 0.000000

*CONN
*I *575:D I *L 0.0006 *D DFFHQNx1_ASAP7_75t_SL
*I *669:Y O *L 0.0000 *D XNOR2xp5_ASAP7_75t_SL

*CAP
1 *575:D 0

*RES
1 *669:Y *575:D 0
*END

*D_NET *265 0.000000

*CONN
*I *586:D I *L 0.0006 *D DFFHQNx1_ASAP7_75t_SL
*I *670:Y O *L 0.0000 *D XNOR2xp5_ASAP7_75t_SL

*CAP
1 *586:D 0

*RES
1 *670:Y *586:D 0
*END

*D_NET *266 0.000000

*CONN
*I *591:D I *L 0.0006 *D DFFHQNx1_ASAP7_75t_SL
*I *671:Y O *L 0.0000 *D XNOR2xp5_ASAP7_75t_SL

*CAP
1 *591:D 0

*RES
1 *671:Y *591:D 0
*END

*D_NET *267 0.000000

*CONN
*I *594:D I *L 0.0006 *D DFFHQNx1_ASAP7_75t_SL
*I *672:Y O *L 0.0000 *D XNOR2xp5_ASAP7_75t_SL

*CAP
1 *594:D 0

*RES
1 *672:Y *594:D 0
*END

*D_NET *268 0.000000

*CONN
*I *597:D I *L 0.0006 *D DFFHQNx1_ASAP7_75t_SL
*I *673:Y O *L 0.0000 *D XNOR2xp5_ASAP7_75t_SL

*CAP
1 *597:D 0

*RES
1 *673:Y *597:D 0
*END

*D_NET *269 0.000000

*CONN
*I *581:D I *L 0.0006 *D DFFHQNx1_ASAP7_75t_SL
*I *674:Y O *L 0.0000 *D XNOR2xp5_ASAP7_75t_SL

*CAP
1 *581:D 0

*RES
1 *674:Y *581:D 0
*END

*D_NET *270 0.000000

*CONN
*I *950:B I *L 0.0006 *D OAI21xp5_ASAP7_75t_SL
*I *748:A I *L 0.0003 *D NAND2xp33_ASAP7_75t_R
*I *700:Y O *L 0.0000 *D NAND2xp5_ASAP7_75t_SL

*CAP
1 *950:B 0
2 *748:A 0

*RES
1 *700:Y *950:B 0
2 *700:Y *748:A 0
*END

*D_NET *271 0.000000

*CONN
*I *613:A2 I *L 0.0006 *D AOI21xp5_ASAP7_75t_SL
*I *675:Y O *L 0.0000 *D INVxp67_ASAP7_75t_SL

*CAP
1 *613:A2 0

*RES
1 *675:Y *613:A2 0
*END

*D_NET *272 0.000000

*CONN
*I *784:B I *L 0.0005 *D NOR3xp33_ASAP7_75t_SL
*I *677:A I *L 0.0004 *D NOR2xp33_ASAP7_75t_SL
*I *675:A I *L 0.0005 *D INVxp67_ASAP7_75t_SL
*I *676:A3 I *L 0.0005 *D OAI31xp33_ASAP7_75t_SL
*I *707:Y O *L 0.0000 *D NOR2x1_ASAP7_75t_SL

*CAP
1 *784:B 0
2 *677:A 0
3 *675:A 0
4 *676:A3 0

*RES
1 *707:Y *784:B 0
2 *707:Y *677:A 0
3 *707:Y *675:A 0
4 *707:Y *676:A3 0
*END

*D_NET *273 0.000000

*CONN
*I *674:B I *L 0.0009 *D XNOR2xp5_ASAP7_75t_SL
*I *676:Y O *L 0.0000 *D OAI31xp33_ASAP7_75t_SL

*CAP
1 *674:B 0

*RES
1 *676:Y *674:B 0
*END

*D_NET *274 0.000000

*CONN
*I *742:A I *L 0.0011 *D XNOR2xp5_ASAP7_75t_SL
*I *677:Y O *L 0.0000 *D NOR2xp33_ASAP7_75t_SL

*CAP
1 *742:A 0

*RES
1 *677:Y *742:A 0
*END

*D_NET *275 0.000000

*CONN
*I *633:B I *L 0.0006 *D AOI21xp5_ASAP7_75t_SL
*I *715:A1 I *L 0.0006 *D OAI21xp5_ASAP7_75t_L
*I *682:Y O *L 0.0000 *D NOR2x1_ASAP7_75t_SL

*CAP
1 *633:B 0
2 *715:A1 0

*RES
1 *682:Y *633:B 0
2 *682:Y *715:A1 0
*END

*D_NET *276 0.000000

*CONN
*I *873:A2 I *L 0.0011 *D OAI21x1_ASAP7_75t_SL
*I *662:A I *L 0.0004 *D NOR2xp33_ASAP7_75t_SL
*I *678:Y O *L 0.0000 *D NOR2x1_ASAP7_75t_SL

*CAP
1 *873:A2 0
2 *662:A 0

*RES
1 *678:Y *873:A2 0
2 *678:Y *662:A 0
*END

*D_NET *277 0.000000

*CONN
*I *736:B I *L 0.0009 *D XNOR2xp5_ASAP7_75t_SL
*I *679:Y O *L 0.0000 *D OAI21xp5_ASAP7_75t_SL

*CAP
1 *736:B 0

*RES
1 *679:Y *736:B 0
*END

*D_NET *278 0.000000

*CONN
*I *679:B I *L 0.0006 *D OAI21xp5_ASAP7_75t_SL
*I *757:A I *L 0.0007 *D INVx1_ASAP7_75t_SL
*I *680:Y O *L 0.0000 *D NAND2x1p5_ASAP7_75t_SL

*CAP
1 *679:B 0
2 *757:A 0

*RES
1 *680:Y *679:B 0
2 *680:Y *757:A 0
*END

*D_NET *279 0.000000

*CONN
*I *655:A I *L 0.0005 *D INVxp67_ASAP7_75t_SL
*I *631:A I *L 0.0004 *D NOR2xp33_ASAP7_75t_SL
*I *683:Y O *L 0.0000 *D NOR2x1_ASAP7_75t_SL

*CAP
1 *655:A 0
2 *631:A 0

*RES
1 *683:Y *655:A 0
2 *683:Y *631:A 0
*END

*D_NET *280 0.000000

*CONN
*I *644:A I *L 0.0008 *D NOR2xp67_ASAP7_75t_L
*I *825:A I *L 0.0005 *D OR2x2_ASAP7_75t_SL
*I *831:A1 I *L 0.0006 *D OAI21xp5_ASAP7_75t_SL
*I *849:C I *L 0.0005 *D NOR3xp33_ASAP7_75t_SL
*I *854:A I *L 0.0004 *D NOR2xp33_ASAP7_75t_SL
*I *684:Y O *L 0.0000 *D NOR2x1p5_ASAP7_75t_SL

*CAP
1 *644:A 0
2 *825:A 0
3 *831:A1 0
4 *849:C 0
5 *854:A 0

*RES
1 *684:Y *644:A 0
2 *684:Y *825:A 0
3 *684:Y *831:A1 0
4 *684:Y *849:C 0
5 *684:Y *854:A 0
*END

*D_NET *281 0.000000

*CONN
*I *824:D I *L 0.0005 *D NOR4xp25_ASAP7_75t_SL
*I *785:C I *L 0.0005 *D NOR3xp33_ASAP7_75t_SL
*I *718:A1 I *L 0.0006 *D OAI21xp5_ASAP7_75t_SL
*I *634:B I *L 0.0006 *D AOI21xp5_ASAP7_75t_SL
*I *722:A I *L 0.0016 *D NOR2x1p5_ASAP7_75t_SL
*I *773:Y O *L 0.0000 *D NOR2x1p5_ASAP7_75t_SL

*CAP
1 *824:D 0
2 *785:C 0
3 *718:A1 0
4 *634:B 0
5 *722:A 0

*RES
1 *773:Y *824:D 0
2 *773:Y *785:C 0
3 *773:Y *718:A1 0
4 *773:Y *634:B 0
5 *773:Y *722:A 0
*END

*D_NET *282 0.000000

*CONN
*I *824:A I *L 0.0006 *D NOR4xp25_ASAP7_75t_SL
*I *685:Y O *L 0.0000 *D INVxp67_ASAP7_75t_SL

*CAP
1 *824:A 0

*RES
1 *685:Y *824:A 0
*END

*D_NET *283 0.000000

*CONN
*I *630:A I *L 0.0005 *D OR2x2_ASAP7_75t_SL
*I *620:A1 I *L 0.0006 *D OA21x2_ASAP7_75t_SL
*I *640:A I *L 0.0004 *D NOR2xp33_ASAP7_75t_SL
*I *686:Y O *L 0.0000 *D NOR2x1_ASAP7_75t_SL

*CAP
1 *630:A 0
2 *620:A1 0
3 *640:A 0

*RES
1 *686:Y *630:A 0
2 *686:Y *620:A1 0
3 *686:Y *640:A 0
*END

*D_NET *284 0.000000

*CONN
*I *849:B I *L 0.0005 *D NOR3xp33_ASAP7_75t_SL
*I *692:A I *L 0.0007 *D INVx1_ASAP7_75t_SL
*I *687:Y O *L 0.0000 *D NOR2x1_ASAP7_75t_SL

*CAP
1 *849:B 0
2 *692:A 0

*RES
1 *687:Y *849:B 0
2 *687:Y *692:A 0
*END

*D_NET *285 0.000000

*CONN
*I *849:A I *L 0.0006 *D NOR3xp33_ASAP7_75t_SL
*I *829:A1 I *L 0.0006 *D OAI21xp5_ASAP7_75t_SL
*I *825:B I *L 0.0006 *D OR2x2_ASAP7_75t_SL
*I *688:Y O *L 0.0000 *D NOR2x1_ASAP7_75t_SL

*CAP
1 *849:A 0
2 *829:A1 0
3 *825:B 0

*RES
1 *688:Y *849:A 0
2 *688:Y *829:A1 0
3 *688:Y *825:B 0
*END

*D_NET *286 0.000000

*CONN
*I *645:A I *L 0.0008 *D NOR2xp67_ASAP7_75t_L
*I *689:A2 I *L 0.0006 *D OAI21xp5_ASAP7_75t_SL
*I *690:Y O *L 0.0000 *D NOR2x1_ASAP7_75t_SL

*CAP
1 *645:A 0
2 *689:A2 0

*RES
1 *690:Y *645:A 0
2 *690:Y *689:A2 0
*END

*D_NET *287 0.000000

*CONN
*I *651:A I *L 0.0003 *D INVxp33_ASAP7_75t_SL
*I *689:B I *L 0.0006 *D OAI21xp5_ASAP7_75t_SL
*I *691:Y O *L 0.0000 *D NAND2xp5_ASAP7_75t_SL

*CAP
1 *651:A 0
2 *689:B 0

*RES
1 *691:Y *651:A 0
2 *691:Y *689:B 0
*END

*D_NET *288 0.000000

*CONN
*I *827:B I *L 0.0012 *D AOI21x1_ASAP7_75t_SL
*I *689:Y O *L 0.0000 *D OAI21xp5_ASAP7_75t_SL

*CAP
1 *827:B 0

*RES
1 *689:Y *827:B 0
*END

*D_NET *289 0.000000

*CONN
*I *863:A I *L 0.0005 *D AND2x2_ASAP7_75t_SL
*I *832:A1 I *L 0.0004 *D AOI22xp33_ASAP7_75t_SL
*I *692:Y O *L 0.0000 *D INVx1_ASAP7_75t_SL

*CAP
1 *863:A 0
2 *832:A1 0

*RES
1 *692:Y *863:A 0
2 *692:Y *832:A1 0
*END

*D_NET *290 0.000000

*CONN
*I *831:B I *L 0.0006 *D OAI21xp5_ASAP7_75t_SL
*I *829:A2 I *L 0.0006 *D OAI21xp5_ASAP7_75t_SL
*I *648:A I *L 0.0003 *D INVxp33_ASAP7_75t_SL
*I *693:Y O *L 0.0000 *D NAND2xp5_ASAP7_75t_SL

*CAP
1 *831:B 0
2 *829:A2 0
3 *648:A 0

*RES
1 *693:Y *831:B 0
2 *693:Y *829:A2 0
3 *693:Y *648:A 0
*END

*D_NET *291 0.000000

*CONN
*I *863:B I *L 0.0006 *D AND2x2_ASAP7_75t_SL
*I *694:Y O *L 0.0000 *D NAND2xp5_ASAP7_75t_SL

*CAP
1 *863:B 0

*RES
1 *694:Y *863:B 0
*END

*D_NET *292 0.000000

*CONN
*I *784:A I *L 0.0006 *D NOR3xp33_ASAP7_75t_SL
*I *696:Y O *L 0.0000 *D NOR2xp33_ASAP7_75t_SL

*CAP
1 *784:A 0

*RES
1 *696:Y *784:A 0
*END

*D_NET *293 0.000000

*CONN
*I *858:A1 I *L 0.0012 *D OAI21x1_ASAP7_75t_SL
*I *697:Y O *L 0.0000 *D NAND2x1_ASAP7_75t_SL

*CAP
1 *858:A1 0

*RES
1 *697:Y *858:A1 0
*END

*D_NET *294 0.000000

*CONN
*I *858:B I *L 0.0013 *D OAI21x1_ASAP7_75t_SL
*I *698:Y O *L 0.0000 *D NAND2x1p5_ASAP7_75t_SL

*CAP
1 *858:B 0

*RES
1 *698:Y *858:B 0
*END

*D_NET *295 0.000000

*CONN
*I *612:B I *L 0.0006 *D OAI21xp5_ASAP7_75t_SL
*I *695:Y O *L 0.0000 *D AOI21xp33_ASAP7_75t_SL

*CAP
1 *612:B 0

*RES
1 *695:Y *612:B 0
*END

*D_NET *296 0.000000

*CONN
*I *873:A1 I *L 0.0012 *D OAI21x1_ASAP7_75t_SL
*I *699:Y O *L 0.0000 *D NAND2xp5_ASAP7_75t_SL

*CAP
1 *873:A1 0

*RES
1 *699:Y *873:A1 0
*END

*D_NET *297 0.000000

*CONN
*I *841:A I *L 0.0007 *D INVx1_ASAP7_75t_SL
*I *628:A I *L 0.0005 *D OR2x2_ASAP7_75t_SL
*I *636:A I *L 0.0003 *D NOR2xp33_ASAP7_75t_R
*I *701:Y O *L 0.0000 *D NOR2x1_ASAP7_75t_SL

*CAP
1 *841:A 0
2 *628:A 0
3 *636:A 0

*RES
1 *701:Y *841:A 0
2 *701:Y *628:A 0
3 *701:Y *636:A 0
*END

*D_NET *298 0.000000

*CONN
*I *770:B I *L 0.0006 *D OAI21xp5_ASAP7_75t_SL
*I *660:A I *L 0.0003 *D INVxp33_ASAP7_75t_SL
*I *702:Y O *L 0.0000 *D NAND2xp5_ASAP7_75t_SL

*CAP
1 *770:B 0
2 *660:A 0

*RES
1 *702:Y *770:B 0
2 *702:Y *660:A 0
*END

*D_NET *299 0.000000

*CONN
*I *817:A1 I *L 0.0012 *D AOI22x1_ASAP7_75t_SL
*I *703:Y O *L 0.0000 *D INVx2_ASAP7_75t_SL

*CAP
1 *817:A1 0

*RES
1 *703:Y *817:A1 0
*END

*D_NET *300 0.000000

*CONN
*I *817:A2 I *L 0.0013 *D AOI22x1_ASAP7_75t_SL
*I *704:Y O *L 0.0000 *D INVx2_ASAP7_75t_SL

*CAP
1 *817:A2 0

*RES
1 *704:Y *817:A2 0
*END

*D_NET *301 0.000000

*CONN
*I *817:B1 I *L 0.0011 *D AOI22x1_ASAP7_75t_SL
*I *705:Y O *L 0.0000 *D INVx2_ASAP7_75t_SL

*CAP
1 *817:B1 0

*RES
1 *705:Y *817:B1 0
*END

*D_NET *302 0.000000

*CONN
*I *817:B2 I *L 0.0012 *D AOI22x1_ASAP7_75t_SL
*I *706:Y O *L 0.0000 *D INVx4_ASAP7_75t_SL

*CAP
1 *817:B2 0

*RES
1 *706:Y *817:B2 0
*END

*D_NET *303 0.000000

*CONN
*I *955:A I *L 0.0011 *D NOR2x1_ASAP7_75t_SL
*I *708:Y O *L 0.0000 *D NOR2x1_ASAP7_75t_SL

*CAP
1 *955:A 0

*RES
1 *708:Y *955:A 0
*END

*D_NET *304 0.000000

*CONN
*I *940:A1 I *L 0.0012 *D AOI21x1_ASAP7_75t_SL
*I *709:Y O *L 0.0000 *D NAND2x1p5_ASAP7_75t_SL

*CAP
1 *940:A1 0

*RES
1 *709:Y *940:A1 0
*END

*D_NET *305 0.000000

*CONN
*I *940:A2 I *L 0.0011 *D AOI21x1_ASAP7_75t_SL
*I *710:Y O *L 0.0000 *D NAND2x1_ASAP7_75t_SL

*CAP
1 *940:A2 0

*RES
1 *710:Y *940:A2 0
*END

*D_NET *306 0.000000

*CONN
*I *940:B I *L 0.0012 *D AOI21x1_ASAP7_75t_SL
*I *711:Y O *L 0.0000 *D NOR2x1p5_ASAP7_75t_SL

*CAP
1 *940:B 0

*RES
1 *711:Y *940:B 0
*END

*D_NET *307 0.000000

*CONN
*I *967:A1 I *L 0.0012 *D OAI21x1_ASAP7_75t_SL
*I *730:B I *L 0.0006 *D OAI21xp5_ASAP7_75t_SL
*I *620:A2 I *L 0.0006 *D OA21x2_ASAP7_75t_SL
*I *712:Y O *L 0.0000 *D INVx2_ASAP7_75t_SL

*CAP
1 *967:A1 0
2 *730:B 0
3 *620:A2 0

*RES
1 *712:Y *967:A1 0
2 *712:Y *730:B 0
3 *712:Y *620:A2 0
*END

*D_NET *308 0.000000

*CONN
*I *967:A2 I *L 0.0011 *D OAI21x1_ASAP7_75t_SL
*I *713:Y O *L 0.0000 *D INVx1_ASAP7_75t_SL

*CAP
1 *967:A2 0

*RES
1 *713:Y *967:A2 0
*END

*D_NET *309 0.000000

*CONN
*I *967:B I *L 0.0013 *D OAI21x1_ASAP7_75t_SL
*I *714:Y O *L 0.0000 *D INVx1_ASAP7_75t_SL

*CAP
1 *967:B 0

*RES
1 *714:Y *967:B 0
*END

*D_NET *310 0.000000

*CONN
*I *968:B I *L 0.0006 *D AO21x1_ASAP7_75t_SL
*I *715:Y O *L 0.0000 *D OAI21xp5_ASAP7_75t_L

*CAP
1 *968:B 0

*RES
1 *715:Y *968:B 0
*END

*D_NET *311 0.000000

*CONN
*I *834:A I *L 0.0007 *D INVx1_ASAP7_75t_SL
*I *718:A2 I *L 0.0006 *D OAI21xp5_ASAP7_75t_SL
*I *719:Y O *L 0.0000 *D NAND2xp5_ASAP7_75t_SL

*CAP
1 *834:A 0
2 *718:A2 0

*RES
1 *719:Y *834:A 0
2 *719:Y *718:A2 0
*END

*D_NET *312 0.000000

*CONN
*I *718:B I *L 0.0006 *D OAI21xp5_ASAP7_75t_SL
*I *720:Y O *L 0.0000 *D NAND2xp5_ASAP7_75t_SL

*CAP
1 *718:B 0

*RES
1 *720:Y *718:B 0
*END

*D_NET *313 0.000000

*CONN
*I *972:B I *L 0.0006 *D AOI21xp5_ASAP7_75t_SL
*I *827:A1 I *L 0.0012 *D AOI21x1_ASAP7_75t_SL
*I *717:A2 I *L 0.0006 *D AO21x1_ASAP7_75t_SL
*I *718:Y O *L 0.0000 *D OAI21xp5_ASAP7_75t_SL

*CAP
1 *972:B 0
2 *827:A1 0
3 *717:A2 0

*RES
1 *718:Y *972:B 0
2 *718:Y *827:A1 0
3 *718:Y *717:A2 0
*END

*D_NET *314 0.000000

*CONN
*I *975:B I *L 0.0006 *D AOI21xp5_ASAP7_75t_SL
*I *717:Y O *L 0.0000 *D AO21x1_ASAP7_75t_SL

*CAP
1 *975:B 0

*RES
1 *717:Y *975:B 0
*END

*D_NET *315 0.000000

*CONN
*I *689:A1 I *L 0.0006 *D OAI21xp5_ASAP7_75t_SL
*I *721:Y O *L 0.0000 *D NAND2xp5_ASAP7_75t_SL

*CAP
1 *689:A1 0

*RES
1 *721:Y *689:A1 0
*END

*D_NET *316 0.000000

*CONN
*I *726:A I *L 0.0005 *D INVxp67_ASAP7_75t_SL
*I *727:Y O *L 0.0000 *D INVxp67_ASAP7_75t_SL

*CAP
1 *726:A 0

*RES
1 *727:Y *726:A 0
*END

*D_NET *317 0.000000

*CONN
*I *728:A I *L 0.0005 *D INVxp67_ASAP7_75t_SL
*I *729:Y O *L 0.0000 *D INVxp67_ASAP7_75t_SL

*CAP
1 *728:A 0

*RES
1 *729:Y *728:A 0
*END

*D_NET *318 0.000000

*CONN
*I *630:B I *L 0.0006 *D OR2x2_ASAP7_75t_SL
*I *730:A1 I *L 0.0006 *D OAI21xp5_ASAP7_75t_SL
*I *731:Y O *L 0.0000 *D INVx1_ASAP7_75t_SL

*CAP
1 *630:B 0
2 *730:A1 0

*RES
1 *731:Y *630:B 0
2 *731:Y *730:A1 0
*END

*D_NET *319 0.000000

*CONN
*I *666:B I *L 0.0009 *D XNOR2xp5_ASAP7_75t_SL
*I *730:Y O *L 0.0000 *D OAI21xp5_ASAP7_75t_SL

*CAP
1 *666:B 0

*RES
1 *730:Y *666:B 0
*END

*D_NET *320 0.000000

*CONN
*I *943:A2 I *L 0.0005 *D OAI21xp33_ASAP7_75t_SL
*I *902:A I *L 0.0005 *D INVxp67_ASAP7_75t_SL
*I *769:C I *L 0.0005 *D NOR3xp33_ASAP7_75t_SL
*I *732:Y O *L 0.0000 *D NOR2x1_ASAP7_75t_SL

*CAP
1 *943:A2 0
2 *902:A 0
3 *769:C 0

*RES
1 *732:Y *943:A2 0
2 *732:Y *902:A 0
3 *732:Y *769:C 0
*END

*D_NET *321 0.000000

*CONN
*I *944:A1 I *L 0.0006 *D OAI21xp5_ASAP7_75t_SL
*I *628:B I *L 0.0006 *D OR2x2_ASAP7_75t_SL
*I *733:Y O *L 0.0000 *D INVxp67_ASAP7_75t_SL

*CAP
1 *944:A1 0
2 *628:B 0

*RES
1 *733:Y *944:A1 0
2 *733:Y *628:B 0
*END

*D_NET *322 0.000000

*CONN
*I *742:B I *L 0.0009 *D XNOR2xp5_ASAP7_75t_SL
*I *734:Y O *L 0.0000 *D OAI21xp5_ASAP7_75t_SL

*CAP
1 *742:B 0

*RES
1 *734:Y *742:B 0
*END

*D_NET *323 0.000000

*CONN
*I *587:D I *L 0.0006 *D DFFHQNx1_ASAP7_75t_SL
*I *735:Y O *L 0.0000 *D XNOR2xp5_ASAP7_75t_SL

*CAP
1 *587:D 0

*RES
1 *735:Y *587:D 0
*END

*D_NET *324 0.000000

*CONN
*I *600:D I *L 0.0006 *D DFFHQNx1_ASAP7_75t_SL
*I *736:Y O *L 0.0000 *D XNOR2xp5_ASAP7_75t_SL

*CAP
1 *600:D 0

*RES
1 *736:Y *600:D 0
*END

*D_NET *325 0.000000

*CONN
*I *583:D I *L 0.0006 *D DFFHQNx1_ASAP7_75t_SL
*I *737:Y O *L 0.0000 *D XNOR2xp5_ASAP7_75t_SL

*CAP
1 *583:D 0

*RES
1 *737:Y *583:D 0
*END

*D_NET *326 0.000000

*CONN
*I *595:D I *L 0.0006 *D DFFHQNx1_ASAP7_75t_SL
*I *738:Y O *L 0.0000 *D XNOR2xp5_ASAP7_75t_SL

*CAP
1 *595:D 0

*RES
1 *738:Y *595:D 0
*END

*D_NET *327 0.000000

*CONN
*I *577:D I *L 0.0006 *D DFFHQNx1_ASAP7_75t_SL
*I *739:Y O *L 0.0000 *D XNOR2xp5_ASAP7_75t_SL

*CAP
1 *577:D 0

*RES
1 *739:Y *577:D 0
*END

*D_NET *328 0.000000

*CONN
*I *588:D I *L 0.0006 *D DFFHQNx1_ASAP7_75t_SL
*I *740:Y O *L 0.0000 *D XNOR2xp5_ASAP7_75t_SL

*CAP
1 *588:D 0

*RES
1 *740:Y *588:D 0
*END

*D_NET *329 0.000000

*CONN
*I *593:D I *L 0.0006 *D DFFHQNx1_ASAP7_75t_SL
*I *741:Y O *L 0.0000 *D XNOR2xp5_ASAP7_75t_SL

*CAP
1 *593:D 0

*RES
1 *741:Y *593:D 0
*END

*D_NET *330 0.000000

*CONN
*I *584:D I *L 0.0006 *D DFFHQNx1_ASAP7_75t_SL
*I *742:Y O *L 0.0000 *D XNOR2xp5_ASAP7_75t_SL

*CAP
1 *584:D 0

*RES
1 *742:Y *584:D 0
*END

*D_NET *331 0.000000

*CONN
*I *596:D I *L 0.0006 *D DFFHQNx1_ASAP7_75t_SL
*I *743:Y O *L 0.0000 *D XNOR2xp5_ASAP7_75t_SL

*CAP
1 *596:D 0

*RES
1 *743:Y *596:D 0
*END

*D_NET *332 0.000000

*CONN
*I *585:D I *L 0.0006 *D DFFHQNx1_ASAP7_75t_SL
*I *744:Y O *L 0.0000 *D XNOR2xp5_ASAP7_75t_SL

*CAP
1 *585:D 0

*RES
1 *744:Y *585:D 0
*END

*D_NET *333 0.000000

*CONN
*I *745:A I *L 0.0011 *D XNOR2xp5_ASAP7_75t_SL
*I *746:Y O *L 0.0000 *D NOR2xp33_ASAP7_75t_SL

*CAP
1 *745:A 0

*RES
1 *746:Y *745:A 0
*END

*D_NET *334 0.000000

*CONN
*I *745:B I *L 0.0009 *D XNOR2xp5_ASAP7_75t_SL
*I *747:Y O *L 0.0000 *D OAI21xp5_ASAP7_75t_SL

*CAP
1 *745:B 0

*RES
1 *747:Y *745:B 0
*END

*D_NET *335 0.000000

*CONN
*I *580:D I *L 0.0006 *D DFFHQNx1_ASAP7_75t_SL
*I *745:Y O *L 0.0000 *D XNOR2xp5_ASAP7_75t_SL

*CAP
1 *580:D 0

*RES
1 *745:Y *580:D 0
*END

*D_NET *336 0.000000

*CONN
*I *753:A I *L 0.0011 *D XNOR2xp5_ASAP7_75t_SL
*I *748:Y O *L 0.0000 *D NAND2xp33_ASAP7_75t_R

*CAP
1 *753:A 0

*RES
1 *748:Y *753:A 0
*END

*D_NET *337 0.000000

*CONN
*I *755:A2 I *L 0.0006 *D OAI21xp5_ASAP7_75t_SL
*I *750:Y O *L 0.0000 *D NAND2xp5_ASAP7_75t_SL

*CAP
1 *755:A2 0

*RES
1 *750:Y *755:A2 0
*END

*D_NET *338 0.000000

*CONN
*I *755:B I *L 0.0006 *D OAI21xp5_ASAP7_75t_SL
*I *751:Y O *L 0.0000 *D NAND2xp5_ASAP7_75t_SL

*CAP
1 *755:B 0

*RES
1 *751:Y *755:B 0
*END

*D_NET *339 0.000000

*CONN
*I *679:A1 I *L 0.0006 *D OAI21xp5_ASAP7_75t_SL
*I *749:Y O *L 0.0000 *D INVxp67_ASAP7_75t_SL

*CAP
1 *679:A1 0

*RES
1 *749:Y *679:A1 0
*END

*D_NET *340 0.000000

*CONN
*I *743:A I *L 0.0011 *D XNOR2xp5_ASAP7_75t_SL
*I *752:Y O *L 0.0000 *D AOI21xp5_ASAP7_75t_SL

*CAP
1 *743:A 0

*RES
1 *752:Y *743:A 0
*END

*D_NET *341 0.000000

*CONN
*I *592:D I *L 0.0006 *D DFFHQNx1_ASAP7_75t_SL
*I *753:Y O *L 0.0000 *D XNOR2xp5_ASAP7_75t_SL

*CAP
1 *592:D 0

*RES
1 *753:Y *592:D 0
*END

*D_NET *342 0.000000

*CONN
*I *754:B I *L 0.0009 *D XNOR2xp5_ASAP7_75t_SL
*I *749:A I *L 0.0005 *D INVxp67_ASAP7_75t_SL
*I *755:Y O *L 0.0000 *D OAI21xp5_ASAP7_75t_SL

*CAP
1 *754:B 0
2 *749:A 0

*RES
1 *755:Y *754:B 0
2 *755:Y *749:A 0
*END

*D_NET *343 0.000000

*CONN
*I *756:B I *L 0.0011 *D NOR2x1_ASAP7_75t_SL
*I *757:Y O *L 0.0000 *D INVx1_ASAP7_75t_SL

*CAP
1 *756:B 0

*RES
1 *757:Y *756:B 0
*END

*D_NET *344 0.000000

*CONN
*I *754:A I *L 0.0011 *D XNOR2xp5_ASAP7_75t_SL
*I *756:Y O *L 0.0000 *D NOR2x1_ASAP7_75t_SL

*CAP
1 *754:A 0

*RES
1 *756:Y *754:A 0
*END

*D_NET *345 0.000000

*CONN
*I *602:D I *L 0.0006 *D DFFHQNx1_ASAP7_75t_SL
*I *754:Y O *L 0.0000 *D XNOR2xp5_ASAP7_75t_SL

*CAP
1 *602:D 0

*RES
1 *754:Y *602:D 0
*END

*D_NET *346 0.000000

*CONN
*I *758:A I *L 0.0011 *D XNOR2xp5_ASAP7_75t_SL
*I *759:Y O *L 0.0000 *D XOR2xp5_ASAP7_75t_SL

*CAP
1 *758:A 0

*RES
1 *759:Y *758:A 0
*END

*D_NET *347 0.000000

*CONN
*I *758:B I *L 0.0009 *D XNOR2xp5_ASAP7_75t_SL
*I *760:Y O *L 0.0000 *D OAI21xp5_ASAP7_75t_SL

*CAP
1 *758:B 0

*RES
1 *760:Y *758:B 0
*END

*D_NET *348 0.000000

*CONN
*I *572:D I *L 0.0006 *D DFFHQNx1_ASAP7_75t_SL
*I *758:Y O *L 0.0000 *D XNOR2xp5_ASAP7_75t_SL

*CAP
1 *572:D 0

*RES
1 *758:Y *572:D 0
*END

*D_NET *349 0.000000

*CONN
*I *761:B I *L 0.0009 *D XNOR2xp5_ASAP7_75t_SL
*I *762:Y O *L 0.0000 *D OAI21xp5_ASAP7_75t_SL

*CAP
1 *761:B 0

*RES
1 *762:Y *761:B 0
*END

*D_NET *350 0.000000

*CONN
*I *589:D I *L 0.0006 *D DFFHQNx1_ASAP7_75t_SL
*I *761:Y O *L 0.0000 *D XNOR2xp5_ASAP7_75t_SL

*CAP
1 *589:D 0

*RES
1 *761:Y *589:D 0
*END

*D_NET *351 0.000000

*CONN
*I *578:D I *L 0.0006 *D DFFHQNx1_ASAP7_75t_SL
*I *763:Y O *L 0.0000 *D XNOR2xp5_ASAP7_75t_SL

*CAP
1 *578:D 0

*RES
1 *763:Y *578:D 0
*END

*D_NET *352 0.000000

*CONN
*I *899:B I *L 0.0006 *D NAND2xp5_ASAP7_75t_SL
*I *764:Y O *L 0.0000 *D INVx1_ASAP7_75t_SL

*CAP
1 *899:B 0

*RES
1 *764:Y *899:B 0
*END

*D_NET *353 0.000000

*CONN
*I *765:B I *L 0.0004 *D OAI21xp33_ASAP7_75t_SL
*I *766:Y O *L 0.0000 *D INVxp33_ASAP7_75t_SL

*CAP
1 *765:B 0

*RES
1 *766:Y *765:B 0
*END

*D_NET *354 0.000000

*CONN
*I *868:B I *L 0.0006 *D AOI21xp5_ASAP7_75t_SL
*I *765:Y O *L 0.0000 *D OAI21xp33_ASAP7_75t_SL

*CAP
1 *868:B 0

*RES
1 *765:Y *868:B 0
*END

*D_NET *355 0.000000

*CONN
*I *948:A I *L 0.0007 *D INVx1_ASAP7_75t_SL
*I *615:A1 I *L 0.0005 *D AOI221xp5_ASAP7_75t_SL
*I *767:Y O *L 0.0000 *D INVx1_ASAP7_75t_SL

*CAP
1 *948:A 0
2 *615:A1 0

*RES
1 *767:Y *948:A 0
2 *767:Y *615:A1 0
*END

*D_NET *356 0.000000

*CONN
*I *768:A2 I *L 0.0006 *D AOI21xp5_ASAP7_75t_SL
*I *769:Y O *L 0.0000 *D NOR3xp33_ASAP7_75t_SL

*CAP
1 *768:A2 0

*RES
1 *769:Y *768:A2 0
*END

*D_NET *357 0.000000

*CONN
*I *768:B I *L 0.0006 *D AOI21xp5_ASAP7_75t_SL
*I *770:Y O *L 0.0000 *D OAI21xp5_ASAP7_75t_SL

*CAP
1 *768:B 0

*RES
1 *770:Y *768:B 0
*END

*D_NET *358 0.000000

*CONN
*I *741:B I *L 0.0009 *D XNOR2xp5_ASAP7_75t_SL
*I *768:Y O *L 0.0000 *D AOI21xp5_ASAP7_75t_SL

*CAP
1 *741:B 0

*RES
1 *768:Y *741:B 0
*END

*D_NET *359 0.000000

*CONN
*I *771:A I *L 0.0011 *D XNOR2xp5_ASAP7_75t_SL
*I *772:Y O *L 0.0000 *D AND2x2_ASAP7_75t_SL

*CAP
1 *771:A 0

*RES
1 *772:Y *771:A 0
*END

*D_NET *360 0.000000

*CONN
*I *603:D I *L 0.0006 *D DFFHQNx1_ASAP7_75t_SL
*I *771:Y O *L 0.0000 *D XNOR2xp5_ASAP7_75t_SL

*CAP
1 *603:D 0

*RES
1 *771:Y *603:D 0
*END

*D_NET *361 0.000000

*CONN
*I *858:A2 I *L 0.0011 *D OAI21x1_ASAP7_75t_SL
*I *784:C I *L 0.0005 *D NOR3xp33_ASAP7_75t_SL
*I *637:A I *L 0.0003 *D NOR2xp33_ASAP7_75t_L
*I *774:Y O *L 0.0000 *D NOR2x1p5_ASAP7_75t_L

*CAP
1 *858:A2 0
2 *784:C 0
3 *637:A 0

*RES
1 *774:Y *858:A2 0
2 *774:Y *784:C 0
3 *774:Y *637:A 0
*END

*D_NET *362 0.000000

*CONN
*I *679:A2 I *L 0.0006 *D OAI21xp5_ASAP7_75t_SL
*I *756:A I *L 0.0011 *D NOR2x1_ASAP7_75t_SL
*I *775:Y O *L 0.0000 *D NOR2x1p5_ASAP7_75t_L

*CAP
1 *679:A2 0
2 *756:A 0

*RES
1 *775:Y *679:A2 0
2 *775:Y *756:A 0
*END

*D_NET *363 0.000000

*CONN
*I *677:B I *L 0.0004 *D NOR2xp33_ASAP7_75t_SL
*I *613:B I *L 0.0006 *D AOI21xp5_ASAP7_75t_SL
*I *776:Y O *L 0.0000 *D AND2x2_ASAP7_75t_SL

*CAP
1 *677:B 0
2 *613:B 0

*RES
1 *776:Y *677:B 0
2 *776:Y *613:B 0
*END

*D_NET *364 0.000000

*CONN
*I *637:B I *L 0.0004 *D NOR2xp33_ASAP7_75t_L
*I *777:Y O *L 0.0000 *D AND2x2_ASAP7_75t_SL

*CAP
1 *637:B 0

*RES
1 *777:Y *637:B 0
*END

*D_NET *365 0.000000

*CONN
*I *765:A1 I *L 0.0004 *D OAI21xp33_ASAP7_75t_SL
*I *631:B I *L 0.0004 *D NOR2xp33_ASAP7_75t_SL
*I *626:A I *L 0.0004 *D NOR2xp33_ASAP7_75t_SL
*I *778:Y O *L 0.0000 *D OAI22xp5_ASAP7_75t_SL

*CAP
1 *765:A1 0
2 *631:B 0
3 *626:A 0

*RES
1 *778:Y *765:A1 0
2 *778:Y *631:B 0
3 *778:Y *626:A 0
*END

*D_NET *366 0.000000

*CONN
*I *859:B I *L 0.0006 *D AO21x1_ASAP7_75t_SL
*I *746:A I *L 0.0004 *D NOR2xp33_ASAP7_75t_SL
*I *779:Y O *L 0.0000 *D AND2x2_ASAP7_75t_SL

*CAP
1 *859:B 0
2 *746:A 0

*RES
1 *779:Y *859:B 0
2 *779:Y *746:A 0
*END

*D_NET *367 0.000000

*CONN
*I *635:B I *L 0.0004 *D NOR2xp33_ASAP7_75t_SL
*I *717:B I *L 0.0006 *D AO21x1_ASAP7_75t_SL
*I *780:Y O *L 0.0000 *D AND2x2_ASAP7_75t_SL

*CAP
1 *635:B 0
2 *717:B 0

*RES
1 *780:Y *635:B 0
2 *780:Y *717:B 0
*END

*D_NET *368 0.000000

*CONN
*I *859:A2 I *L 0.0006 *D AO21x1_ASAP7_75t_SL
*I *661:A I *L 0.0003 *D INVxp33_ASAP7_75t_SL
*I *781:Y O *L 0.0000 *D OR2x2_ASAP7_75t_SL

*CAP
1 *859:A2 0
2 *661:A 0

*RES
1 *781:Y *859:A2 0
2 *781:Y *661:A 0
*END

*D_NET *369 0.000000

*CONN
*I *717:A1 I *L 0.0006 *D AO21x1_ASAP7_75t_SL
*I *716:A I *L 0.0007 *D INVx1_ASAP7_75t_SL
*I *782:Y O *L 0.0000 *D OR2x2_ASAP7_75t_SL

*CAP
1 *717:A1 0
2 *716:A 0

*RES
1 *782:Y *717:A1 0
2 *782:Y *716:A 0
*END

*D_NET *370 0.000000

*CONN
*I *685:A I *L 0.0005 *D INVxp67_ASAP7_75t_SL
*I *827:A2 I *L 0.0011 *D AOI21x1_ASAP7_75t_SL
*I *850:A I *L 0.0005 *D NAND2xp5_ASAP7_75t_SL
*I *783:Y O *L 0.0000 *D OA22x2_ASAP7_75t_SL

*CAP
1 *685:A 0
2 *827:A2 0
3 *850:A 0

*RES
1 *783:Y *685:A 0
2 *783:Y *827:A2 0
3 *783:Y *850:A 0
*END

*D_NET *371 0.000000

*CONN
*I *695:A2 I *L 0.0004 *D AOI21xp33_ASAP7_75t_SL
*I *627:A I *L 0.0005 *D NAND2xp5_ASAP7_75t_SL
*I *784:Y O *L 0.0000 *D NOR3xp33_ASAP7_75t_SL

*CAP
1 *695:A2 0
2 *627:A 0

*RES
1 *784:Y *695:A2 0
2 *784:Y *627:A 0
*END

*D_NET *372 0.000000

*CONN
*I *975:A2 I *L 0.0006 *D AOI21xp5_ASAP7_75t_SL
*I *619:A I *L 0.0005 *D NAND2xp5_ASAP7_75t_SL
*I *785:Y O *L 0.0000 *D NOR3xp33_ASAP7_75t_SL

*CAP
1 *975:A2 0
2 *619:A 0

*RES
1 *785:Y *975:A2 0
2 *785:Y *619:A 0
*END

*D_NET *373 0.000000

*CONN
*I *829:B I *L 0.0006 *D OAI21xp5_ASAP7_75t_SL
*I *786:CON O *L 0.0000 *D HAxp5_ASAP7_75t_SL

*CAP
1 *829:B 0

*RES
1 *786:CON *829:B 0
*END

*D_NET *374 0.000000

*CONN
*I *787:A I *L 0.0005 *D INVxp67_ASAP7_75t_SL
*I *786:SN O *L 0.0000 *D HAxp5_ASAP7_75t_SL

*CAP
1 *787:A 0

*RES
1 *786:SN *787:A 0
*END

*D_NET *375 0.000000

*CONN
*I *761:A I *L 0.0011 *D XNOR2xp5_ASAP7_75t_SL
*I *787:Y O *L 0.0000 *D INVxp67_ASAP7_75t_SL

*CAP
1 *761:A 0

*RES
1 *787:Y *761:A 0
*END

*D_NET *376 0.000000

*CONN
*I *801:B2 I *L 0.0012 *D AOI22x1_ASAP7_75t_SL
*I *788:Y O *L 0.0000 *D INVx2_ASAP7_75t_SL

*CAP
1 *801:B2 0

*RES
1 *788:Y *801:B2 0
*END

*D_NET *377 0.000000

*CONN
*I *801:B1 I *L 0.0011 *D AOI22x1_ASAP7_75t_SL
*I *789:Y O *L 0.0000 *D INVx1_ASAP7_75t_SL

*CAP
1 *801:B1 0

*RES
1 *789:Y *801:B1 0
*END

*D_NET *378 0.000000

*CONN
*I *801:A2 I *L 0.0013 *D AOI22x1_ASAP7_75t_SL
*I *790:Y O *L 0.0000 *D INVx2_ASAP7_75t_SL

*CAP
1 *801:A2 0

*RES
1 *790:Y *801:A2 0
*END

*D_NET *379 0.000000

*CONN
*I *801:A1 I *L 0.0012 *D AOI22x1_ASAP7_75t_SL
*I *791:Y O *L 0.0000 *D INVx1_ASAP7_75t_SL

*CAP
1 *801:A1 0

*RES
1 *791:Y *801:A1 0
*END

*D_NET *380 0.000000

*CONN
*I *614:A1 I *L 0.0006 *D OA21x2_ASAP7_75t_SL
*I *623:A I *L 0.0005 *D OR2x2_ASAP7_75t_SL
*I *641:A I *L 0.0004 *D NOR2xp33_ASAP7_75t_SL
*I *792:Y O *L 0.0000 *D NOR2x1_ASAP7_75t_SL

*CAP
1 *614:A1 0
2 *623:A 0
3 *641:A 0

*RES
1 *792:Y *614:A1 0
2 *792:Y *623:A 0
3 *792:Y *641:A 0
*END

*D_NET *381 0.000000

*CONN
*I *620:B I *L 0.0006 *D OA21x2_ASAP7_75t_SL
*I *654:A I *L 0.0003 *D INVxp33_ASAP7_75t_SL
*I *793:A1 I *L 0.0012 *D OAI21x1_ASAP7_75t_SL
*I *794:Y O *L 0.0000 *D NAND2x1p5_ASAP7_75t_SL

*CAP
1 *620:B 0
2 *654:A 0
3 *793:A1 0

*RES
1 *794:Y *620:B 0
2 *794:Y *654:A 0
3 *794:Y *793:A1 0
*END

*D_NET *382 0.000000

*CONN
*I *643:A I *L 0.0004 *D NOR2xp33_ASAP7_75t_SL
*I *793:A2 I *L 0.0011 *D OAI21x1_ASAP7_75t_SL
*I *795:Y O *L 0.0000 *D NOR2x1_ASAP7_75t_SL

*CAP
1 *643:A 0
2 *793:A2 0

*RES
1 *795:Y *643:A 0
2 *795:Y *793:A2 0
*END

*D_NET *383 0.000000

*CONN
*I *714:A I *L 0.0007 *D INVx1_ASAP7_75t_SL
*I *681:B I *L 0.0005 *D AOI21xp33_ASAP7_75t_SL
*I *793:Y O *L 0.0000 *D OAI21x1_ASAP7_75t_SL

*CAP
1 *714:A 0
2 *681:B 0

*RES
1 *793:Y *714:A 0
2 *793:Y *681:B 0
*END

*D_NET *384 0.000000

*CONN
*I *800:A I *L 0.0016 *D NAND2x1p5_ASAP7_75t_SL
*I *968:A1 I *L 0.0006 *D AO21x1_ASAP7_75t_SL
*I *801:Y O *L 0.0000 *D AOI22x1_ASAP7_75t_SL

*CAP
1 *800:A 0
2 *968:A1 0

*RES
1 *801:Y *800:A 0
2 *801:Y *968:A1 0
*END

*D_NET *385 0.000000

*CONN
*I *966:A I *L 0.0007 *D INVx1_ASAP7_75t_SL
*I *796:B I *L 0.0016 *D NOR2x1p5_ASAP7_75t_SL
*I *800:Y O *L 0.0000 *D NAND2x1p5_ASAP7_75t_SL

*CAP
1 *966:A 0
2 *796:B 0

*RES
1 *800:Y *966:A 0
2 *800:Y *796:B 0
*END

*D_NET *386 0.000000

*CONN
*I *618:B I *L 0.0006 *D NAND2xp5_ASAP7_75t_SL
*I *621:B I *L 0.0006 *D NAND2xp5_ASAP7_75t_SL
*I *619:B I *L 0.0006 *D NAND2xp5_ASAP7_75t_SL
*I *622:A I *L 0.0007 *D INVx1_ASAP7_75t_SL
*I *823:A I *L 0.0004 *D NAND2xp33_ASAP7_75t_SL
*I *852:B I *L 0.0005 *D NAND3xp33_ASAP7_75t_SL
*I *616:B I *L 0.0006 *D NAND2xp5_ASAP7_75t_SL
*I *796:Y O *L 0.0000 *D NOR2x1p5_ASAP7_75t_SL

*CAP
1 *618:B 0
2 *621:B 0
3 *619:B 0
4 *622:A 0
5 *823:A 0
6 *852:B 0
7 *616:B 0

*RES
1 *796:Y *618:B 0
2 *796:Y *621:B 0
3 *796:Y *619:B 0
4 *796:Y *622:A 0
5 *796:Y *823:A 0
6 *796:Y *852:B 0
7 *796:Y *616:B 0
*END

*D_NET *387 0.000000

*CONN
*I *731:A I *L 0.0007 *D INVx1_ASAP7_75t_SL
*I *802:Y O *L 0.0000 *D INVxp67_ASAP7_75t_SL

*CAP
1 *731:A 0

*RES
1 *802:Y *731:A 0
*END

*D_NET *388 0.000000

*CONN
*I *681:A2 I *L 0.0004 *D AOI21xp33_ASAP7_75t_SL
*I *713:A I *L 0.0007 *D INVx1_ASAP7_75t_SL
*I *803:Y O *L 0.0000 *D INVx1_ASAP7_75t_SL

*CAP
1 *681:A2 0
2 *713:A 0

*RES
1 *803:Y *681:A2 0
2 *803:Y *713:A 0
*END

*D_NET *389 0.000000

*CONN
*I *921:A1 I *L 0.0012 *D OAI21x1_ASAP7_75t_SL
*I *811:B I *L 0.0011 *D NOR2x1_ASAP7_75t_SL
*I *804:Y O *L 0.0000 *D NOR2x2_ASAP7_75t_SL

*CAP
1 *921:A1 0
2 *811:B 0

*RES
1 *804:Y *921:A1 0
2 *804:Y *811:B 0
*END

*D_NET *390 0.000000

*CONN
*I *811:A I *L 0.0011 *D NOR2x1_ASAP7_75t_SL
*I *877:A I *L 0.0003 *D HB1xp67_ASAP7_75t_SL
*I *805:Y O *L 0.0000 *D NOR2x1p5_ASAP7_75t_SL

*CAP
1 *811:A 0
2 *877:A 0

*RES
1 *805:Y *811:A 0
2 *805:Y *877:A 0
*END

*D_NET *391 0.000000

*CONN
*I *957:A1 I *L 0.0012 *D OAI21x1_ASAP7_75t_SL
*I *900:A1 I *L 0.0006 *D OA21x2_ASAP7_75t_SL
*I *806:Y O *L 0.0000 *D NAND2x1p5_ASAP7_75t_SL

*CAP
1 *957:A1 0
2 *900:A1 0

*RES
1 *806:Y *957:A1 0
2 *806:Y *900:A1 0
*END

*D_NET *392 0.000000

*CONN
*I *957:B I *L 0.0013 *D OAI21x1_ASAP7_75t_SL
*I *900:B I *L 0.0006 *D OA21x2_ASAP7_75t_SL
*I *807:Y O *L 0.0000 *D NAND2x1p5_ASAP7_75t_SL

*CAP
1 *957:B 0
2 *900:B 0

*RES
1 *807:Y *957:B 0
2 *807:Y *900:B 0
*END

*D_NET *393 0.000000

*CONN
*I *921:A2 I *L 0.0011 *D OAI21x1_ASAP7_75t_SL
*I *808:Y O *L 0.0000 *D NAND2x1p5_ASAP7_75t_L

*CAP
1 *921:A2 0

*RES
1 *808:Y *921:A2 0
*END

*D_NET *394 0.000000

*CONN
*I *809:A I *L 0.0007 *D INVx1_ASAP7_75t_SL
*I *810:Y O *L 0.0000 *D OAI22x1_ASAP7_75t_L

*CAP
1 *809:A 0

*RES
1 *810:Y *809:A 0
*END

*D_NET *395 0.000000

*CONN
*I *954:B I *L 0.0011 *D NAND2x1_ASAP7_75t_SL
*I *809:Y O *L 0.0000 *D INVx1_ASAP7_75t_SL

*CAP
1 *954:B 0

*RES
1 *809:Y *954:B 0
*END

*D_NET *396 0.000000

*CONN
*I *816:A2 I *L 0.0011 *D AOI21x1_ASAP7_75t_SL
*I *811:Y O *L 0.0000 *D NOR2x1_ASAP7_75t_SL

*CAP
1 *816:A2 0

*RES
1 *811:Y *816:A2 0
*END

*D_NET *397 0.000000

*CONN
*I *639:B I *L 0.0005 *D AOI21xp33_ASAP7_75t_SL
*I *812:A1 I *L 0.0012 *D OAI21x1_ASAP7_75t_SL
*I *813:Y O *L 0.0000 *D NOR2x1p5_ASAP7_75t_SL

*CAP
1 *639:B 0
2 *812:A1 0

*RES
1 *813:Y *639:B 0
2 *813:Y *812:A1 0
*END

*D_NET *398 0.000000

*CONN
*I *953:A1 I *L 0.0004 *D AOI21xp33_ASAP7_75t_SL
*I *913:B I *L 0.0006 *D OAI21xp5_ASAP7_75t_SL
*I *629:A I *L 0.0004 *D AND2x2_ASAP7_75t_SRAM
*I *812:A2 I *L 0.0011 *D OAI21x1_ASAP7_75t_SL
*I *814:Y O *L 0.0000 *D NAND2x1p5_ASAP7_75t_SL

*CAP
1 *953:A1 0
2 *913:B 0
3 *629:A 0
4 *812:A2 0

*RES
1 *814:Y *953:A1 0
2 *814:Y *913:B 0
3 *814:Y *629:A 0
4 *814:Y *812:A2 0
*END

*D_NET *399 0.000000

*CONN
*I *812:B I *L 0.0013 *D OAI21x1_ASAP7_75t_SL
*I *815:Y O *L 0.0000 *D NAND2x1_ASAP7_75t_SL

*CAP
1 *812:B 0

*RES
1 *815:Y *812:B 0
*END

*D_NET *400 0.000000

*CONN
*I *681:A1 I *L 0.0004 *D AOI21xp33_ASAP7_75t_SL
*I *712:A I *L 0.0013 *D INVx2_ASAP7_75t_SL
*I *812:Y O *L 0.0000 *D OAI21x1_ASAP7_75t_SL

*CAP
1 *681:A1 0
2 *712:A 0

*RES
1 *812:Y *681:A1 0
2 *812:Y *712:A 0
*END

*D_NET *401 0.000000

*CONN
*I *951:B I *L 0.0006 *D OA21x2_ASAP7_75t_SL
*I *937:B I *L 0.0013 *D OAI21x1_ASAP7_75t_SL
*I *816:Y O *L 0.0000 *D AOI21x1_ASAP7_75t_SL

*CAP
1 *951:B 0
2 *937:B 0

*RES
1 *816:Y *951:B 0
2 *816:Y *937:B 0
*END

*D_NET *402 0.000000

*CONN
*I *856:B I *L 0.0016 *D NAND2x1p5_ASAP7_75t_SL
*I *659:A I *L 0.0003 *D HB1xp67_ASAP7_75t_SL
*I *817:Y O *L 0.0000 *D AOI22x1_ASAP7_75t_SL

*CAP
1 *856:B 0
2 *659:A 0

*RES
1 *817:Y *856:B 0
2 *817:Y *659:A 0
*END

*D_NET *403 0.000000

*CONN
*I *652:A I *L 0.0003 *D INVxp33_ASAP7_75t_SL
*I *614:B I *L 0.0006 *D OA21x2_ASAP7_75t_SL
*I *818:A1 I *L 0.0012 *D OAI21x1_ASAP7_75t_SL
*I *819:Y O *L 0.0000 *D NAND2x1p5_ASAP7_75t_SL

*CAP
1 *652:A 0
2 *614:B 0
3 *818:A1 0

*RES
1 *819:Y *652:A 0
2 *819:Y *614:B 0
3 *819:Y *818:A1 0
*END

*D_NET *404 0.000000

*CONN
*I *818:A2 I *L 0.0011 *D OAI21x1_ASAP7_75t_SL
*I *820:Y O *L 0.0000 *D NOR2x1_ASAP7_75t_SL

*CAP
1 *818:A2 0

*RES
1 *820:Y *818:A2 0
*END

*D_NET *405 0.000000

*CONN
*I *818:B I *L 0.0013 *D OAI21x1_ASAP7_75t_SL
*I *821:Y O *L 0.0000 *D NAND2x1p5_ASAP7_75t_L

*CAP
1 *818:B 0

*RES
1 *821:Y *818:B 0
*END

*D_NET *406 0.000000

*CONN
*I *968:A2 I *L 0.0006 *D AO21x1_ASAP7_75t_SL
*I *766:A I *L 0.0003 *D INVxp33_ASAP7_75t_SL
*I *615:B1 I *L 0.0006 *D AOI221xp5_ASAP7_75t_SL
*I *818:Y O *L 0.0000 *D OAI21x1_ASAP7_75t_SL

*CAP
1 *968:A2 0
2 *766:A 0
3 *615:B1 0

*RES
1 *818:Y *968:A2 0
2 *818:Y *766:A 0
3 *818:Y *615:B1 0
*END

*D_NET *407 0.000000

*CONN
*I *835:A I *L 0.0011 *D NOR2x1_ASAP7_75t_SL
*I *822:Y O *L 0.0000 *D NOR2x1p5_ASAP7_75t_SL

*CAP
1 *835:A 0

*RES
1 *822:Y *835:A 0
*END

*D_NET *408 0.000000

*CONN
*I *826:A1 I *L 0.0006 *D OAI21xp5_ASAP7_75t_SL
*I *824:B I *L 0.0005 *D NOR4xp25_ASAP7_75t_SL
*I *825:Y O *L 0.0000 *D OR2x2_ASAP7_75t_SL

*CAP
1 *826:A1 0
2 *824:B 0

*RES
1 *825:Y *826:A1 0
2 *825:Y *824:B 0
*END

*D_NET *409 0.000000

*CONN
*I *971:A2 I *L 0.0006 *D AOI21xp5_ASAP7_75t_SL
*I *823:B I *L 0.0004 *D NAND2xp33_ASAP7_75t_SL
*I *824:Y O *L 0.0000 *D NOR4xp25_ASAP7_75t_SL

*CAP
1 *971:A2 0
2 *823:B 0

*RES
1 *824:Y *971:A2 0
2 *824:Y *823:B 0
*END

*D_NET *410 0.000000

*CONN
*I *864:A1 I *L 0.0006 *D OAI21xp5_ASAP7_75t_SL
*I *823:Y O *L 0.0000 *D NAND2xp33_ASAP7_75t_SL

*CAP
1 *864:A1 0

*RES
1 *823:Y *864:A1 0
*END

*D_NET *411 0.000000

*CONN
*I *851:A2 I *L 0.0006 *D OAI21xp5_ASAP7_75t_SL
*I *831:A2 I *L 0.0006 *D OAI21xp5_ASAP7_75t_SL
*I *830:A I *L 0.0005 *D INVxp67_ASAP7_75t_SL
*I *826:A2 I *L 0.0006 *D OAI21xp5_ASAP7_75t_SL
*I *827:Y O *L 0.0000 *D AOI21x1_ASAP7_75t_SL

*CAP
1 *851:A2 0
2 *831:A2 0
3 *830:A 0
4 *826:A2 0

*RES
1 *827:Y *851:A2 0
2 *827:Y *831:A2 0
3 *827:Y *830:A 0
4 *827:Y *826:A2 0
*END

*D_NET *412 0.000000

*CONN
*I *832:A2 I *L 0.0004 *D AOI22xp33_ASAP7_75t_SL
*I *828:A I *L 0.0005 *D INVxp67_ASAP7_75t_SL
*I *829:Y O *L 0.0000 *D OAI21xp5_ASAP7_75t_SL

*CAP
1 *832:A2 0
2 *828:A 0

*RES
1 *829:Y *832:A2 0
2 *829:Y *828:A 0
*END

*D_NET *413 0.000000

*CONN
*I *826:B I *L 0.0006 *D OAI21xp5_ASAP7_75t_SL
*I *828:Y O *L 0.0000 *D INVxp67_ASAP7_75t_SL

*CAP
1 *826:B 0

*RES
1 *828:Y *826:B 0
*END

*D_NET *414 0.000000

*CONN
*I *971:B I *L 0.0006 *D AOI21xp5_ASAP7_75t_SL
*I *826:Y O *L 0.0000 *D OAI21xp5_ASAP7_75t_SL

*CAP
1 *971:B 0

*RES
1 *826:Y *971:B 0
*END

*D_NET *415 0.000000

*CONN
*I *970:B I *L 0.0006 *D AOI21xp5_ASAP7_75t_SL
*I *830:Y O *L 0.0000 *D INVxp67_ASAP7_75t_SL

*CAP
1 *970:B 0

*RES
1 *830:Y *970:B 0
*END

*D_NET *416 0.000000

*CONN
*I *974:B I *L 0.0006 *D AOI21xp5_ASAP7_75t_SL
*I *831:Y O *L 0.0000 *D OAI21xp5_ASAP7_75t_SL

*CAP
1 *974:B 0

*RES
1 *831:Y *974:B 0
*END

*D_NET *417 0.000000

*CONN
*I *851:B I *L 0.0006 *D OAI21xp5_ASAP7_75t_SL
*I *832:Y O *L 0.0000 *D AOI22xp33_ASAP7_75t_SL

*CAP
1 *851:B 0

*RES
1 *832:Y *851:B 0
*END

*D_NET *418 0.000000

*CONN
*I *969:A2 I *L 0.0006 *D AOI21xp5_ASAP7_75t_SL
*I *833:Y O *L 0.0000 *D INVxp67_ASAP7_75t_SRAM

*CAP
1 *969:A2 0

*RES
1 *833:Y *969:A2 0
*END

*D_NET *419 0.000000

*CONN
*I *835:B I *L 0.0011 *D NOR2x1_ASAP7_75t_SL
*I *836:Y O *L 0.0000 *D NOR2x1p5_ASAP7_75t_L

*CAP
1 *835:B 0

*RES
1 *836:Y *835:B 0
*END

*D_NET *420 0.000000

*CONN
*I *929:A2 I *L 0.0011 *D AOI21x1_ASAP7_75t_SL
*I *835:Y O *L 0.0000 *D NOR2x1_ASAP7_75t_SL

*CAP
1 *929:A2 0

*RES
1 *835:Y *929:A2 0
*END

*D_NET *421 0.000000

*CONN
*I *908:A1 I *L 0.0006 *D AOI21xp5_ASAP7_75t_SL
*I *837:Y O *L 0.0000 *D INVx1_ASAP7_75t_SL

*CAP
1 *908:A1 0

*RES
1 *837:Y *908:A1 0
*END

*D_NET *422 0.000000

*CONN
*I *908:A2 I *L 0.0006 *D AOI21xp5_ASAP7_75t_SL
*I *838:Y O *L 0.0000 *D INVx1_ASAP7_75t_SL

*CAP
1 *908:A2 0

*RES
1 *838:Y *908:A2 0
*END

*D_NET *423 0.000000

*CONN
*I *908:B I *L 0.0006 *D AOI21xp5_ASAP7_75t_SL
*I *839:Y O *L 0.0000 *D NOR2x1_ASAP7_75t_SL

*CAP
1 *908:B 0

*RES
1 *839:Y *908:B 0
*END

*D_NET *424 0.000000

*CONN
*I *744:A I *L 0.0011 *D XNOR2xp5_ASAP7_75t_SL
*I *840:Y O *L 0.0000 *D XOR2xp5_ASAP7_75t_SL

*CAP
1 *744:A 0

*RES
1 *840:Y *744:A 0
*END

*D_NET *425 0.000000

*CONN
*I *934:A1 I *L 0.0006 *D AOI21xp5_ASAP7_75t_SL
*I *841:Y O *L 0.0000 *D INVx1_ASAP7_75t_SL

*CAP
1 *934:A1 0

*RES
1 *841:Y *934:A1 0
*END

*D_NET *426 0.000000

*CONN
*I *842:A1 I *L 0.0012 *D OAI21x1_ASAP7_75t_SL
*I *843:Y O *L 0.0000 *D NAND2x1p5_ASAP7_75t_SL

*CAP
1 *842:A1 0

*RES
1 *843:Y *842:A1 0
*END

*D_NET *427 0.000000

*CONN
*I *842:A2 I *L 0.0011 *D OAI21x1_ASAP7_75t_SL
*I *844:Y O *L 0.0000 *D NOR2x1p5_ASAP7_75t_L

*CAP
1 *842:A2 0

*RES
1 *844:Y *842:A2 0
*END

*D_NET *428 0.000000

*CONN
*I *842:B I *L 0.0013 *D OAI21x1_ASAP7_75t_SL
*I *845:Y O *L 0.0000 *D NAND2x1p5_ASAP7_75t_SL

*CAP
1 *842:B 0

*RES
1 *845:Y *842:B 0
*END

*D_NET *429 0.000000

*CONN
*I *929:B I *L 0.0012 *D AOI21x1_ASAP7_75t_SL
*I *842:Y O *L 0.0000 *D OAI21x1_ASAP7_75t_SL

*CAP
1 *929:B 0

*RES
1 *842:Y *929:B 0
*END

*D_NET *430 0.000000

*CONN
*I *875:B1 I *L 0.0011 *D AOI22x1_ASAP7_75t_SL
*I *846:Y O *L 0.0000 *D INVx3_ASAP7_75t_SL

*CAP
1 *875:B1 0

*RES
1 *846:Y *875:B1 0
*END

*D_NET *431 0.000000

*CONN
*I *852:C I *L 0.0005 *D NAND3xp33_ASAP7_75t_SL
*I *848:A I *L 0.0005 *D INVxp67_ASAP7_75t_SL
*I *849:Y O *L 0.0000 *D NOR3xp33_ASAP7_75t_SL

*CAP
1 *852:C 0
2 *848:A 0

*RES
1 *849:Y *852:C 0
2 *849:Y *848:A 0
*END

*D_NET *432 0.000000

*CONN
*I *851:A1 I *L 0.0006 *D OAI21xp5_ASAP7_75t_SL
*I *847:A I *L 0.0004 *D NOR2xp33_ASAP7_75t_SL
*I *848:Y O *L 0.0000 *D INVxp67_ASAP7_75t_SL

*CAP
1 *851:A1 0
2 *847:A 0

*RES
1 *848:Y *851:A1 0
2 *848:Y *847:A 0
*END

*D_NET *433 0.000000

*CONN
*I *853:A I *L 0.0007 *D INVx1_ASAP7_75t_SL
*I *847:B I *L 0.0004 *D NOR2xp33_ASAP7_75t_SL
*I *854:B I *L 0.0004 *D NOR2xp33_ASAP7_75t_SL
*I *850:Y O *L 0.0000 *D NAND2xp5_ASAP7_75t_SL

*CAP
1 *853:A 0
2 *847:B 0
3 *854:B 0

*RES
1 *850:Y *853:A 0
2 *850:Y *847:B 0
3 *850:Y *854:B 0
*END

*D_NET *434 0.000000

*CONN
*I *976:A2 I *L 0.0006 *D AOI21xp5_ASAP7_75t_SL
*I *847:Y O *L 0.0000 *D NOR2xp33_ASAP7_75t_SL

*CAP
1 *976:A2 0

*RES
1 *847:Y *976:A2 0
*END

*D_NET *435 0.000000

*CONN
*I *976:B I *L 0.0006 *D AOI21xp5_ASAP7_75t_SL
*I *851:Y O *L 0.0000 *D OAI21xp5_ASAP7_75t_SL

*CAP
1 *976:B 0

*RES
1 *851:Y *976:B 0
*END

*D_NET *436 0.000000

*CONN
*I *970:A2 I *L 0.0006 *D AOI21xp5_ASAP7_75t_SL
*I *618:A I *L 0.0005 *D NAND2xp5_ASAP7_75t_SL
*I *852:A I *L 0.0006 *D NAND3xp33_ASAP7_75t_SL
*I *853:Y O *L 0.0000 *D INVx1_ASAP7_75t_SL

*CAP
1 *970:A2 0
2 *618:A 0
3 *852:A 0

*RES
1 *853:Y *970:A2 0
2 *853:Y *618:A 0
3 *853:Y *852:A 0
*END

*D_NET *437 0.000000

*CONN
*I *760:A1 I *L 0.0006 *D OAI21xp5_ASAP7_75t_SL
*I *852:Y O *L 0.0000 *D NAND3xp33_ASAP7_75t_SL

*CAP
1 *760:A1 0

*RES
1 *852:Y *760:A1 0
*END

*D_NET *438 0.000000

*CONN
*I *974:A2 I *L 0.0006 *D AOI21xp5_ASAP7_75t_SL
*I *616:A I *L 0.0005 *D NAND2xp5_ASAP7_75t_SL
*I *854:Y O *L 0.0000 *D NOR2xp33_ASAP7_75t_SL

*CAP
1 *974:A2 0
2 *616:A 0

*RES
1 *854:Y *974:A2 0
2 *854:Y *616:A 0
*END

*D_NET *439 0.000000

*CONN
*I *910:A I *L 0.0008 *D NOR2xp67_ASAP7_75t_SL
*I *855:A2 I *L 0.0006 *D OAI21xp5_ASAP7_75t_SL
*I *856:Y O *L 0.0000 *D NAND2x1p5_ASAP7_75t_SL

*CAP
1 *910:A 0
2 *855:A2 0

*RES
1 *856:Y *910:A 0
2 *856:Y *855:A2 0
*END

*D_NET *440 0.000000

*CONN
*I *860:A I *L 0.0003 *D HB1xp67_ASAP7_75t_SL
*I *857:A1 I *L 0.0006 *D AOI21xp5_ASAP7_75t_SL
*I *858:Y O *L 0.0000 *D OAI21x1_ASAP7_75t_SL

*CAP
1 *860:A 0
2 *857:A1 0

*RES
1 *858:Y *860:A 0
2 *858:Y *857:A1 0
*END

*D_NET *441 0.000000

*CONN
*I *855:B I *L 0.0006 *D OAI21xp5_ASAP7_75t_SL
*I *857:Y O *L 0.0000 *D AOI21xp5_ASAP7_75t_SL

*CAP
1 *855:B 0

*RES
1 *857:Y *855:B 0
*END

*D_NET *442 0.000000

*CONN
*I *866:B I *L 0.0012 *D AOI21x1_ASAP7_75t_SL
*I *855:Y O *L 0.0000 *D OAI21xp5_ASAP7_75t_SL

*CAP
1 *866:B 0

*RES
1 *855:Y *866:B 0
*END

*D_NET *443 0.000000

*CONN
*I *861:B I *L 0.0005 *D AOI21xp33_ASAP7_75t_SL
*I *859:A1 I *L 0.0006 *D AO21x1_ASAP7_75t_SL
*I *860:Y O *L 0.0000 *D HB1xp67_ASAP7_75t_SL

*CAP
1 *861:B 0
2 *859:A1 0

*RES
1 *860:Y *861:B 0
2 *860:Y *859:A1 0
*END

*D_NET *444 0.000000

*CONN
*I *695:B I *L 0.0005 *D AOI21xp33_ASAP7_75t_SL
*I *859:Y O *L 0.0000 *D AO21x1_ASAP7_75t_SL

*CAP
1 *695:B 0

*RES
1 *859:Y *695:B 0
*END

*D_NET *445 0.000000

*CONN
*I *747:B I *L 0.0006 *D OAI21xp5_ASAP7_75t_SL
*I *861:Y O *L 0.0000 *D AOI21xp33_ASAP7_75t_SL

*CAP
1 *747:B 0

*RES
1 *861:Y *747:B 0
*END

*D_NET *446 0.000000

*CONN
*I *862:A I *L 0.0011 *D XNOR2xp5_ASAP7_75t_SL
*I *863:Y O *L 0.0000 *D AND2x2_ASAP7_75t_SL

*CAP
1 *862:A 0

*RES
1 *863:Y *862:A 0
*END

*D_NET *447 0.000000

*CONN
*I *862:B I *L 0.0009 *D XNOR2xp5_ASAP7_75t_SL
*I *864:Y O *L 0.0000 *D OAI21xp5_ASAP7_75t_SL

*CAP
1 *862:B 0

*RES
1 *864:Y *862:B 0
*END

*D_NET *448 0.000000

*CONN
*I *573:D I *L 0.0006 *D DFFHQNx1_ASAP7_75t_SL
*I *862:Y O *L 0.0000 *D XNOR2xp5_ASAP7_75t_SL

*CAP
1 *573:D 0

*RES
1 *862:Y *573:D 0
*END

*D_NET *449 0.000000

*CONN
*I *904:A I *L 0.0013 *D INVx2_ASAP7_75t_SL
*I *865:Y O *L 0.0000 *D OAI22x1_ASAP7_75t_SL

*CAP
1 *904:A 0

*RES
1 *865:Y *904:A 0
*END

*D_NET *450 0.000000

*CONN
*I *947:A I *L 0.0013 *D BUFx6f_ASAP7_75t_SL
*I *915:A I *L 0.0005 *D INVxp67_ASAP7_75t_SL
*I *866:Y O *L 0.0000 *D AOI21x1_ASAP7_75t_SL

*CAP
1 *947:A 0
2 *915:A 0

*RES
1 *866:Y *947:A 0
2 *866:Y *915:A 0
*END

*D_NET *451 0.000000

*CONN
*I *953:A2 I *L 0.0004 *D AOI21xp33_ASAP7_75t_SL
*I *867:Y O *L 0.0000 *D NAND2xp5_ASAP7_75t_SL

*CAP
1 *953:A2 0

*RES
1 *867:Y *953:A2 0
*END

*D_NET *452 0.000000

*CONN
*I *737:B I *L 0.0009 *D XNOR2xp5_ASAP7_75t_SL
*I *868:Y O *L 0.0000 *D AOI21xp5_ASAP7_75t_SL

*CAP
1 *737:B 0

*RES
1 *868:Y *737:B 0
*END

*D_NET *453 0.000000

*CONN
*I *861:A1 I *L 0.0004 *D AOI21xp33_ASAP7_75t_SL
*I *695:A1 I *L 0.0004 *D AOI21xp33_ASAP7_75t_SL
*I *613:A1 I *L 0.0006 *D AOI21xp5_ASAP7_75t_SL
*I *869:A I *L 0.0005 *D INVxp67_ASAP7_75t_SL
*I *870:Y O *L 0.0000 *D INVx1_ASAP7_75t_SL

*CAP
1 *861:A1 0
2 *695:A1 0
3 *613:A1 0
4 *869:A 0

*RES
1 *870:Y *861:A1 0
2 *870:Y *695:A1 0
3 *870:Y *613:A1 0
4 *870:Y *869:A 0
*END

*D_NET *454 0.000000

*CONN
*I *734:B I *L 0.0006 *D OAI21xp5_ASAP7_75t_SL
*I *869:Y O *L 0.0000 *D INVxp67_ASAP7_75t_SL

*CAP
1 *734:B 0

*RES
1 *869:Y *734:B 0
*END

*D_NET *455 0.000000

*CONN
*I *875:A1 I *L 0.0012 *D AOI22x1_ASAP7_75t_SL
*I *872:Y O *L 0.0000 *D INVx2_ASAP7_75t_SL

*CAP
1 *875:A1 0

*RES
1 *872:Y *875:A1 0
*END

*D_NET *456 0.000000

*CONN
*I *650:A I *L 0.0003 *D INVxp33_ASAP7_75t_SL
*I *873:B I *L 0.0013 *D OAI21x1_ASAP7_75t_SL
*I *874:Y O *L 0.0000 *D NAND2x1p5_ASAP7_75t_SL

*CAP
1 *650:A 0
2 *873:B 0

*RES
1 *874:Y *650:A 0
2 *874:Y *873:B 0
*END

*D_NET *457 0.000000

*CONN
*I *857:B I *L 0.0006 *D AOI21xp5_ASAP7_75t_SL
*I *873:Y O *L 0.0000 *D OAI21x1_ASAP7_75t_SL

*CAP
1 *857:B 0

*RES
1 *873:Y *857:B 0
*END

*D_NET *458 0.000000

*CONN
*I *875:A2 I *L 0.0013 *D AOI22x1_ASAP7_75t_SL
*I *876:Y O *L 0.0000 *D INVx3_ASAP7_75t_SL

*CAP
1 *875:A2 0

*RES
1 *876:Y *875:A2 0
*END

*D_NET *459 0.000000

*CONN
*I *857:A2 I *L 0.0006 *D AOI21xp5_ASAP7_75t_SL
*I *856:A I *L 0.0016 *D NAND2x1p5_ASAP7_75t_SL
*I *875:Y O *L 0.0000 *D AOI22x1_ASAP7_75t_SL

*CAP
1 *857:A2 0
2 *856:A 0

*RES
1 *875:Y *857:A2 0
2 *875:Y *856:A 0
*END

*D_NET *460 0.000000

*CONN
*I *770:A1 I *L 0.0006 *D OAI21xp5_ASAP7_75t_SL
*I *769:A I *L 0.0006 *D NOR3xp33_ASAP7_75t_SL
*I *642:A I *L 0.0004 *D NOR2xp33_ASAP7_75t_SL
*I *877:Y O *L 0.0000 *D HB1xp67_ASAP7_75t_SL

*CAP
1 *770:A1 0
2 *769:A 0
3 *642:A 0

*RES
1 *877:Y *770:A1 0
2 *877:Y *769:A 0
3 *877:Y *642:A 0
*END

*D_NET *461 0.000000

*CONN
*I *875:B2 I *L 0.0012 *D AOI22x1_ASAP7_75t_SL
*I *878:Y O *L 0.0000 *D INVx4_ASAP7_75t_SL

*CAP
1 *875:B2 0

*RES
1 *878:Y *875:B2 0
*END

*D_NET *462 0.000000

*CONN
*I *941:A1 I *L 0.0012 *D OAI21x1_ASAP7_75t_SL
*I *880:Y O *L 0.0000 *D NAND2x1p5_ASAP7_75t_L

*CAP
1 *941:A1 0

*RES
1 *880:Y *941:A1 0
*END

*D_NET *463 0.000000

*CONN
*I *941:A2 I *L 0.0011 *D OAI21x1_ASAP7_75t_SL
*I *881:Y O *L 0.0000 *D NOR2x1p5_ASAP7_75t_SL

*CAP
1 *941:A2 0

*RES
1 *881:Y *941:A2 0
*END

*D_NET *464 0.000000

*CONN
*I *941:B I *L 0.0013 *D OAI21x1_ASAP7_75t_SL
*I *882:Y O *L 0.0000 *D NAND2x1p5_ASAP7_75t_SL

*CAP
1 *941:B 0

*RES
1 *882:Y *941:B 0
*END

*D_NET *465 0.000000

*CONN
*I *771:B I *L 0.0009 *D XNOR2xp5_ASAP7_75t_SL
*I *892:Y O *L 0.0000 *D XOR2x1_ASAP7_75t_SL

*CAP
1 *771:B 0

*RES
1 *892:Y *771:B 0
*END

*D_NET *466 0.000000

*CONN
*I *755:A1 I *L 0.0006 *D OAI21xp5_ASAP7_75t_SL
*I *893:Y O *L 0.0000 *D NOR2x1_ASAP7_75t_SL

*CAP
1 *755:A1 0

*RES
1 *893:Y *755:A1 0
*END

*D_NET *467 0.000000

*CONN
*I *768:A1 I *L 0.0006 *D AOI21xp5_ASAP7_75t_SL
*I *894:Y O *L 0.0000 *D INVxp67_ASAP7_75t_SL

*CAP
1 *768:A1 0

*RES
1 *894:Y *768:A1 0
*END

*D_NET *468 0.000000

*CONN
*I *599:D I *L 0.0006 *D DFFHQNx1_ASAP7_75t_SL
*I *895:Y O *L 0.0000 *D XNOR2xp5_ASAP7_75t_SL

*CAP
1 *599:D 0

*RES
1 *895:Y *599:D 0
*END

*D_NET *469 0.000000

*CONN
*I *962:A I *L 0.0007 *D INVx1_ASAP7_75t_SL
*I *896:A I *L 0.0005 *D INVxp67_ASAP7_75t_SL
*I *897:Y O *L 0.0000 *D NOR2x1_ASAP7_75t_SL

*CAP
1 *962:A 0
2 *896:A 0

*RES
1 *897:Y *962:A 0
2 *897:Y *896:A 0
*END

*D_NET *470 0.000000

*CONN
*I *867:A I *L 0.0005 *D NAND2xp5_ASAP7_75t_SL
*I *896:Y O *L 0.0000 *D INVxp67_ASAP7_75t_SL

*CAP
1 *867:A 0

*RES
1 *896:Y *867:A 0
*END

*D_NET *471 0.000000

*CONN
*I *898:A1 I *L 0.0006 *D OAI21xp5_ASAP7_75t_SL
*I *899:Y O *L 0.0000 *D NAND2xp5_ASAP7_75t_SL

*CAP
1 *898:A1 0

*RES
1 *899:Y *898:A1 0
*END

*D_NET *472 0.000000

*CONN
*I *770:A2 I *L 0.0006 *D OAI21xp5_ASAP7_75t_SL
*I *898:B I *L 0.0006 *D OAI21xp5_ASAP7_75t_SL
*I *900:Y O *L 0.0000 *D OA21x2_ASAP7_75t_SL

*CAP
1 *770:A2 0
2 *898:B 0

*RES
1 *900:Y *770:A2 0
2 *900:Y *898:B 0
*END

*D_NET *473 0.000000

*CONN
*I *738:B I *L 0.0009 *D XNOR2xp5_ASAP7_75t_SL
*I *898:Y O *L 0.0000 *D OAI21xp5_ASAP7_75t_SL

*CAP
1 *738:B 0

*RES
1 *898:Y *738:B 0
*END

*D_NET *474 0.000000

*CONN
*I *901:B I *L 0.0006 *D NAND2xp5_ASAP7_75t_SL
*I *899:A I *L 0.0005 *D NAND2xp5_ASAP7_75t_SL
*I *902:Y O *L 0.0000 *D INVxp67_ASAP7_75t_SL

*CAP
1 *901:B 0
2 *899:A 0

*RES
1 *902:Y *901:B 0
2 *902:Y *899:A 0
*END

*D_NET *475 0.000000

*CONN
*I *943:B I *L 0.0004 *D OAI21xp33_ASAP7_75t_SL
*I *901:A I *L 0.0005 *D NAND2xp5_ASAP7_75t_SL
*I *903:Y O *L 0.0000 *D NAND2xp5_ASAP7_75t_SL

*CAP
1 *943:B 0
2 *901:A 0

*RES
1 *903:Y *943:B 0
2 *903:Y *901:A 0
*END

*D_NET *476 0.000000

*CONN
*I *895:A I *L 0.0011 *D XNOR2xp5_ASAP7_75t_SL
*I *901:Y O *L 0.0000 *D NAND2xp5_ASAP7_75t_SL

*CAP
1 *895:A 0

*RES
1 *901:Y *895:A 0
*END

*D_NET *477 0.000000

*CONN
*I *907:B I *L 0.0006 *D NAND2xp5_ASAP7_75t_SL
*I *733:A I *L 0.0005 *D INVxp67_ASAP7_75t_SL
*I *904:Y O *L 0.0000 *D INVx2_ASAP7_75t_SL

*CAP
1 *907:B 0
2 *733:A 0

*RES
1 *904:Y *907:B 0
2 *904:Y *733:A 0
*END

*D_NET *478 0.000000

*CONN
*I *907:A I *L 0.0005 *D NAND2xp5_ASAP7_75t_SL
*I *908:Y O *L 0.0000 *D AOI21xp5_ASAP7_75t_SL

*CAP
1 *907:A 0

*RES
1 *908:Y *907:A 0
*END

*D_NET *479 0.000000

*CONN
*I *910:B I *L 0.0007 *D NOR2xp67_ASAP7_75t_SL
*I *909:A I *L 0.0003 *D HB1xp67_ASAP7_75t_SL
*I *906:A I *L 0.0003 *D HB1xp67_ASAP7_75t_SL
*I *907:Y O *L 0.0000 *D NAND2xp5_ASAP7_75t_SL

*CAP
1 *910:B 0
2 *909:A 0
3 *906:A 0

*RES
1 *907:Y *910:B 0
2 *907:Y *909:A 0
3 *907:Y *906:A 0
*END

*D_NET *480 0.000000

*CONN
*I *905:A I *L 0.0005 *D INVxp67_ASAP7_75t_SL
*I *906:Y O *L 0.0000 *D HB1xp67_ASAP7_75t_SL

*CAP
1 *905:A 0

*RES
1 *906:Y *905:A 0
*END

*D_NET *481 0.000000

*CONN
*I *624:A I *L 0.0005 *D NAND2xp5_ASAP7_75t_SL
*I *627:B I *L 0.0006 *D NAND2xp5_ASAP7_75t_SL
*I *905:Y O *L 0.0000 *D INVxp67_ASAP7_75t_SL

*CAP
1 *624:A 0
2 *627:B 0

*RES
1 *905:Y *624:A 0
2 *905:Y *627:B 0
*END

*D_NET *482 0.000000

*CONN
*I *866:A1 I *L 0.0012 *D AOI21x1_ASAP7_75t_SL
*I *910:Y O *L 0.0000 *D NOR2xp67_ASAP7_75t_SL

*CAP
1 *866:A1 0

*RES
1 *910:Y *866:A1 0
*END

*D_NET *483 0.000000

*CONN
*I *939:A I *L 0.0007 *D INVx1_ASAP7_75t_SL
*I *911:Y O *L 0.0000 *D OAI22x1_ASAP7_75t_SL

*CAP
1 *939:A 0

*RES
1 *911:Y *939:A 0
*END

*D_NET *484 0.000000

*CONN
*I *912:A I *L 0.0011 *D XNOR2xp5_ASAP7_75t_SL
*I *913:Y O *L 0.0000 *D OAI21xp5_ASAP7_75t_SL

*CAP
1 *912:A 0

*RES
1 *913:Y *912:A 0
*END

*D_NET *485 0.000000

*CONN
*I *867:B I *L 0.0006 *D NAND2xp5_ASAP7_75t_SL
*I *868:A1 I *L 0.0006 *D AOI21xp5_ASAP7_75t_SL
*I *914:A I *L 0.0005 *D INVxp67_ASAP7_75t_SL
*I *915:Y O *L 0.0000 *D INVxp67_ASAP7_75t_SL

*CAP
1 *867:B 0
2 *868:A1 0
3 *914:A 0

*RES
1 *915:Y *867:B 0
2 *915:Y *868:A1 0
3 *915:Y *914:A 0
*END

*D_NET *486 0.000000

*CONN
*I *912:B I *L 0.0009 *D XNOR2xp5_ASAP7_75t_SL
*I *914:Y O *L 0.0000 *D INVxp67_ASAP7_75t_SL

*CAP
1 *912:B 0

*RES
1 *914:Y *912:B 0
*END

*D_NET *487 0.000000

*CONN
*I *576:D I *L 0.0006 *D DFFHQNx1_ASAP7_75t_SL
*I *912:Y O *L 0.0000 *D XNOR2xp5_ASAP7_75t_SL

*CAP
1 *576:D 0

*RES
1 *912:Y *576:D 0
*END

*D_NET *488 0.000000

*CONN
*I *793:B I *L 0.0013 *D OAI21x1_ASAP7_75t_SL
*I *646:A I *L 0.0003 *D INVxp33_ASAP7_75t_SL
*I *916:Y O *L 0.0000 *D NAND2x1p5_ASAP7_75t_SL

*CAP
1 *793:B 0
2 *646:A 0

*RES
1 *916:Y *793:B 0
2 *916:Y *646:A 0
*END

*D_NET *489 0.000000

*CONN
*I *946:A I *L 0.0007 *D BUFx3_ASAP7_75t_SL
*I *796:A I *L 0.0016 *D NOR2x1p5_ASAP7_75t_SL
*I *797:Y O *L 0.0000 *D OR2x2_ASAP7_75t_SL

*CAP
1 *946:A 0
2 *796:A 0

*RES
1 *797:Y *946:A 0
2 *797:Y *796:A 0
*END

*D_NET *490 0.000000

*CONN
*I *934:B I *L 0.0006 *D AOI21xp5_ASAP7_75t_SL
*I *636:B I *L 0.0003 *D NOR2xp33_ASAP7_75t_R
*I *917:Y O *L 0.0000 *D AND2x2_ASAP7_75t_SL

*CAP
1 *934:B 0
2 *636:B 0

*RES
1 *917:Y *934:B 0
2 *917:Y *636:B 0
*END

*D_NET *491 0.000000

*CONN
*I *740:A I *L 0.0011 *D XNOR2xp5_ASAP7_75t_SL
*I *918:Y O *L 0.0000 *D XOR2xp5_ASAP7_75t_SL

*CAP
1 *740:A 0

*RES
1 *918:Y *740:A 0
*END

*D_NET *492 0.000000

*CONN
*I *736:A I *L 0.0011 *D XNOR2xp5_ASAP7_75t_SL
*I *919:Y O *L 0.0000 *D XOR2xp5_ASAP7_75t_SL

*CAP
1 *736:A 0

*RES
1 *919:Y *736:A 0
*END

*D_NET *493 0.000000

*CONN
*I *670:A I *L 0.0011 *D XNOR2xp5_ASAP7_75t_SL
*I *920:Y O *L 0.0000 *D XOR2x2_ASAP7_75t_R

*CAP
1 *670:A 0

*RES
1 *920:Y *670:A 0
*END

*D_NET *494 0.000000

*CONN
*I *921:B I *L 0.0013 *D OAI21x1_ASAP7_75t_SL
*I *922:Y O *L 0.0000 *D NAND2x1p5_ASAP7_75t_SL

*CAP
1 *921:B 0

*RES
1 *922:Y *921:B 0
*END

*D_NET *495 0.000000

*CONN
*I *816:B I *L 0.0012 *D AOI21x1_ASAP7_75t_SL
*I *921:Y O *L 0.0000 *D OAI21x1_ASAP7_75t_SL

*CAP
1 *816:B 0

*RES
1 *921:Y *816:B 0
*END

*D_NET *496 0.000000

*CONN
*I *923:A I *L 0.0007 *D INVx1_ASAP7_75t_SL
*I *924:Y O *L 0.0000 *D INVxp67_ASAP7_75t_SL

*CAP
1 *923:A 0

*RES
1 *924:Y *923:A 0
*END

*D_NET *497 0.000000

*CONN
*I *925:A I *L 0.0007 *D INVx1_ASAP7_75t_SL
*I *926:Y O *L 0.0000 *D INVxp67_ASAP7_75t_SL

*CAP
1 *925:A 0

*RES
1 *926:Y *925:A 0
*END

*D_NET *498 0.000000

*CONN
*I *781:B I *L 0.0006 *D OR2x2_ASAP7_75t_SL
*I *779:B I *L 0.0006 *D AND2x2_ASAP7_75t_SL
*I *696:B I *L 0.0004 *D NOR2xp33_ASAP7_75t_SL
*I *723:Y O *L 0.0000 *D HB1xp67_ASAP7_75t_SL

*CAP
1 *781:B 0
2 *779:B 0
3 *696:B 0

*RES
1 *723:Y *781:B 0
2 *723:Y *779:B 0
3 *723:Y *696:B 0
*END

*D_NET *499 0.000000

*CONN
*I *782:A I *L 0.0005 *D OR2x2_ASAP7_75t_SL
*I *780:B I *L 0.0006 *D AND2x2_ASAP7_75t_SL
*I *724:Y O *L 0.0000 *D HB1xp67_ASAP7_75t_SL

*CAP
1 *782:A 0
2 *780:B 0

*RES
1 *724:Y *782:A 0
2 *724:Y *780:B 0
*END

*D_NET *500 0.000000

*CONN
*I *782:B I *L 0.0006 *D OR2x2_ASAP7_75t_SL
*I *780:A I *L 0.0005 *D AND2x2_ASAP7_75t_SL
*I *725:Y O *L 0.0000 *D HB1xp67_ASAP7_75t_SL

*CAP
1 *782:B 0
2 *780:A 0

*RES
1 *725:Y *782:B 0
2 *725:Y *780:A 0
*END

*D_NET *501 0.000000

*CONN
*I *696:A I *L 0.0004 *D NOR2xp33_ASAP7_75t_SL
*I *779:A I *L 0.0005 *D AND2x2_ASAP7_75t_SL
*I *781:A I *L 0.0005 *D OR2x2_ASAP7_75t_SL
*I *879:Y O *L 0.0000 *D HB1xp67_ASAP7_75t_SL

*CAP
1 *696:A 0
2 *779:A 0
3 *781:A 0

*RES
1 *879:Y *696:A 0
2 *879:Y *779:A 0
3 *879:Y *781:A 0
*END

*D_NET *502 0.000000

*CONN
*I *778:A1 I *L 0.0006 *D OAI22xp5_ASAP7_75t_SL
*I *920:B I *L 0.0010 *D XOR2x2_ASAP7_75t_R
*I *883:Y O *L 0.0000 *D HB1xp67_ASAP7_75t_SL

*CAP
1 *778:A1 0
2 *920:B 0

*RES
1 *883:Y *778:A1 0
2 *883:Y *920:B 0
*END

*D_NET *503 0.000000

*CONN
*I *920:A I *L 0.0008 *D XOR2x2_ASAP7_75t_R
*I *778:A2 I *L 0.0006 *D OAI22xp5_ASAP7_75t_SL
*I *884:Y O *L 0.0000 *D HB1xp67_ASAP7_75t_SL

*CAP
1 *920:A 0
2 *778:A2 0

*RES
1 *884:Y *920:A 0
2 *884:Y *778:A2 0
*END

*D_NET *504 0.000000

*CONN
*I *917:A I *L 0.0005 *D AND2x2_ASAP7_75t_SL
*I *701:B I *L 0.0011 *D NOR2x1_ASAP7_75t_SL
*I *885:Y O *L 0.0000 *D HB1xp67_ASAP7_75t_SL

*CAP
1 *917:A 0
2 *701:B 0

*RES
1 *885:Y *917:A 0
2 *885:Y *701:B 0
*END

*D_NET *505 0.000000

*CONN
*I *917:B I *L 0.0006 *D AND2x2_ASAP7_75t_SL
*I *701:A I *L 0.0011 *D NOR2x1_ASAP7_75t_SL
*I *886:Y O *L 0.0000 *D HB1xp67_ASAP7_75t_SL

*CAP
1 *917:B 0
2 *701:A 0

*RES
1 *886:Y *917:B 0
2 *886:Y *701:A 0
*END

*D_NET *506 0.000000

*CONN
*I *707:A I *L 0.0011 *D NOR2x1_ASAP7_75t_SL
*I *776:A I *L 0.0005 *D AND2x2_ASAP7_75t_SL
*I *887:Y O *L 0.0000 *D HB1xp67_ASAP7_75t_SL

*CAP
1 *707:A 0
2 *776:A 0

*RES
1 *887:Y *707:A 0
2 *887:Y *776:A 0
*END

*D_NET *507 0.000000

*CONN
*I *778:B2 I *L 0.0006 *D OAI22xp5_ASAP7_75t_SL
*I *792:A I *L 0.0011 *D NOR2x1_ASAP7_75t_SL
*I *888:Y O *L 0.0000 *D HB1xp67_ASAP7_75t_SL

*CAP
1 *778:B2 0
2 *792:A 0

*RES
1 *888:Y *778:B2 0
2 *888:Y *792:A 0
*END

*D_NET *508 0.000000

*CONN
*I *778:B1 I *L 0.0006 *D OAI22xp5_ASAP7_75t_SL
*I *792:B I *L 0.0011 *D NOR2x1_ASAP7_75t_SL
*I *889:Y O *L 0.0000 *D HB1xp67_ASAP7_75t_SL

*CAP
1 *778:B1 0
2 *792:B 0

*RES
1 *889:Y *778:B1 0
2 *889:Y *792:B 0
*END

*D_NET *509 0.000000

*CONN
*I *663:A I *L 0.0011 *D NOR2x1_ASAP7_75t_SL
*I *700:A I *L 0.0005 *D NAND2xp5_ASAP7_75t_SL
*I *890:Y O *L 0.0000 *D HB1xp67_ASAP7_75t_SL

*CAP
1 *663:A 0
2 *700:A 0

*RES
1 *890:Y *663:A 0
2 *890:Y *700:A 0
*END

*D_NET *510 0.000000

*CONN
*I *732:B I *L 0.0011 *D NOR2x1_ASAP7_75t_SL
*I *903:B I *L 0.0006 *D NAND2xp5_ASAP7_75t_SL
*I *891:Y O *L 0.0000 *D BUFx3_ASAP7_75t_SL

*CAP
1 *732:B 0
2 *903:B 0

*RES
1 *891:Y *732:B 0
2 *891:Y *903:B 0
*END

*D_NET *511 0.000000

*CONN
*I *663:B I *L 0.0011 *D NOR2x1_ASAP7_75t_SL
*I *700:B I *L 0.0006 *D NAND2xp5_ASAP7_75t_SL
*I *927:Y O *L 0.0000 *D HB1xp67_ASAP7_75t_SL

*CAP
1 *663:B 0
2 *700:B 0

*RES
1 *927:Y *663:B 0
2 *927:Y *700:B 0
*END

*D_NET *512 0.000000

*CONN
*I *803:A I *L 0.0007 *D INVx1_ASAP7_75t_SL
*I *797:B I *L 0.0006 *D OR2x2_ASAP7_75t_SL
*I *799:Y O *L 0.0000 *D OAI22x1_ASAP7_75t_SL

*CAP
1 *803:A 0
2 *797:B 0

*RES
1 *799:Y *803:A 0
2 *799:Y *797:B 0
*END

*D_NET *513 0.000000

*CONN
*I *832:B1 I *L 0.0004 *D AOI22xp33_ASAP7_75t_SL
*I *694:B I *L 0.0006 *D NAND2xp5_ASAP7_75t_SL
*I *726:Y O *L 0.0000 *D INVxp67_ASAP7_75t_SL

*CAP
1 *832:B1 0
2 *694:B 0

*RES
1 *726:Y *832:B1 0
2 *726:Y *694:B 0
*END

*D_NET *514 0.000000

*CONN
*I *832:B2 I *L 0.0005 *D AOI22xp33_ASAP7_75t_SL
*I *694:A I *L 0.0005 *D NAND2xp5_ASAP7_75t_SL
*I *728:Y O *L 0.0000 *D INVxp67_ASAP7_75t_SL

*CAP
1 *832:B2 0
2 *694:A 0

*RES
1 *728:Y *832:B2 0
2 *728:Y *694:A 0
*END

*D_NET *515 0.000000

*CONN
*I *802:A I *L 0.0005 *D INVxp67_ASAP7_75t_SL
*I *797:A I *L 0.0005 *D OR2x2_ASAP7_75t_SL
*I *798:Y O *L 0.0000 *D OAI22xp5_ASAP7_75t_SL

*CAP
1 *802:A 0
2 *797:A 0

*RES
1 *798:Y *802:A 0
2 *798:Y *797:A 0
*END

*D_NET *516 0.000000

*CONN
*I *870:A I *L 0.0007 *D INVx1_ASAP7_75t_SL
*I *871:Y O *L 0.0000 *D HB1xp67_ASAP7_75t_SL

*CAP
1 *870:A 0

*RES
1 *871:Y *870:A 0
*END

*D_NET *517 0.000000

*CONN
*I *928:B I *L 0.0017 *D XNOR2x1_ASAP7_75t_SL
*I *923:Y O *L 0.0000 *D INVx1_ASAP7_75t_SL

*CAP
1 *928:B 0

*RES
1 *923:Y *928:B 0
*END

*D_NET *518 0.000000

*CONN
*I *928:A I *L 0.0016 *D XNOR2x1_ASAP7_75t_SL
*I *925:Y O *L 0.0000 *D INVx1_ASAP7_75t_SL

*CAP
1 *928:A 0

*RES
1 *925:Y *928:A 0
*END

*D_NET *519 0.000000

*CONN
*I *734:A1 I *L 0.0006 *D OAI21xp5_ASAP7_75t_SL
*I *676:A2 I *L 0.0005 *D OAI31xp33_ASAP7_75t_SL
*I *909:Y O *L 0.0000 *D HB1xp67_ASAP7_75t_SL

*CAP
1 *734:A1 0
2 *676:A2 0

*RES
1 *909:Y *734:A1 0
2 *909:Y *676:A2 0
*END

*D_NET *520 0.000000

*CONN
*I *741:A I *L 0.0011 *D XNOR2xp5_ASAP7_75t_SL
*I *928:Y O *L 0.0000 *D XNOR2x1_ASAP7_75t_SL

*CAP
1 *741:A 0

*RES
1 *928:Y *741:A 0
*END

*D_NET *521 0.000000

*CONN
*I *930:A1 I *L 0.0012 *D OAI21x1_ASAP7_75t_SL
*I *931:Y O *L 0.0000 *D NAND2x1p5_ASAP7_75t_SL

*CAP
1 *930:A1 0

*RES
1 *931:Y *930:A1 0
*END

*D_NET *522 0.000000

*CONN
*I *930:A2 I *L 0.0011 *D OAI21x1_ASAP7_75t_SL
*I *932:Y O *L 0.0000 *D NOR2x1p5_ASAP7_75t_SL

*CAP
1 *930:A2 0

*RES
1 *932:Y *930:A2 0
*END

*D_NET *523 0.000000

*CONN
*I *930:B I *L 0.0013 *D OAI21x1_ASAP7_75t_SL
*I *933:Y O *L 0.0000 *D NAND2x1p5_ASAP7_75t_SL

*CAP
1 *930:B 0

*RES
1 *933:Y *930:B 0
*END

*D_NET *524 0.000000

*CONN
*I *935:A I *L 0.0003 *D HB1xp67_ASAP7_75t_SL
*I *929:A1 I *L 0.0012 *D AOI21x1_ASAP7_75t_SL
*I *930:Y O *L 0.0000 *D OAI21x1_ASAP7_75t_SL

*CAP
1 *935:A 0
2 *929:A1 0

*RES
1 *930:Y *935:A 0
2 *930:Y *929:A1 0
*END

*D_NET *525 0.000000

*CONN
*I *855:A1 I *L 0.0006 *D OAI21xp5_ASAP7_75t_SL
*I *871:A I *L 0.0003 *D HB1xp67_ASAP7_75t_SL
*I *929:Y O *L 0.0000 *D AOI21x1_ASAP7_75t_SL

*CAP
1 *855:A1 0
2 *871:A 0

*RES
1 *929:Y *855:A1 0
2 *929:Y *871:A 0
*END

*D_NET *526 0.000000

*CONN
*I *936:A I *L 0.0005 *D INVxp67_ASAP7_75t_SL
*I *934:A2 I *L 0.0006 *D AOI21xp5_ASAP7_75t_SL
*I *935:Y O *L 0.0000 *D HB1xp67_ASAP7_75t_SL

*CAP
1 *936:A 0
2 *934:A2 0

*RES
1 *935:Y *936:A 0
2 *935:Y *934:A2 0
*END

*D_NET *527 0.000000

*CONN
*I *949:B I *L 0.0006 *D OAI21xp5_ASAP7_75t_SL
*I *934:Y O *L 0.0000 *D AOI21xp5_ASAP7_75t_SL

*CAP
1 *949:B 0

*RES
1 *934:Y *949:B 0
*END

*D_NET *528 0.000000

*CONN
*I *944:B I *L 0.0006 *D OAI21xp5_ASAP7_75t_SL
*I *936:Y O *L 0.0000 *D INVxp67_ASAP7_75t_SL

*CAP
1 *944:B 0

*RES
1 *936:Y *944:B 0
*END

*D_NET *529 0.000000

*CONN
*I *938:A1 I *L 0.0012 *D AOI21x1_ASAP7_75t_SL
*I *939:Y O *L 0.0000 *D INVx1_ASAP7_75t_SL

*CAP
1 *938:A1 0

*RES
1 *939:Y *938:A1 0
*END

*D_NET *530 0.000000

*CONN
*I *938:A2 I *L 0.0011 *D AOI21x1_ASAP7_75t_SL
*I *940:Y O *L 0.0000 *D AOI21x1_ASAP7_75t_SL

*CAP
1 *938:A2 0

*RES
1 *940:Y *938:A2 0
*END

*D_NET *531 0.000000

*CONN
*I *938:B I *L 0.0012 *D AOI21x1_ASAP7_75t_SL
*I *941:Y O *L 0.0000 *D OAI21x1_ASAP7_75t_SL

*CAP
1 *938:B 0

*RES
1 *941:Y *938:B 0
*END

*D_NET *532 0.000000

*CONN
*I *951:A1 I *L 0.0006 *D OA21x2_ASAP7_75t_SL
*I *943:A1 I *L 0.0004 *D OAI21xp33_ASAP7_75t_SL
*I *942:A I *L 0.0003 *D HB1xp67_ASAP7_75t_SL
*I *937:A2 I *L 0.0011 *D OAI21x1_ASAP7_75t_SL
*I *938:Y O *L 0.0000 *D AOI21x1_ASAP7_75t_SL

*CAP
1 *951:A1 0
2 *943:A1 0
3 *942:A 0
4 *937:A2 0

*RES
1 *938:Y *951:A1 0
2 *938:Y *943:A1 0
3 *938:Y *942:A 0
4 *938:Y *937:A2 0
*END

*D_NET *533 0.000000

*CONN
*I *866:A2 I *L 0.0011 *D AOI21x1_ASAP7_75t_SL
*I *937:Y O *L 0.0000 *D OAI21x1_ASAP7_75t_SL

*CAP
1 *866:A2 0

*RES
1 *937:Y *866:A2 0
*END

*D_NET *534 0.000000

*CONN
*I *898:A2 I *L 0.0006 *D OAI21xp5_ASAP7_75t_SL
*I *895:B I *L 0.0009 *D XNOR2xp5_ASAP7_75t_SL
*I *894:A I *L 0.0005 *D INVxp67_ASAP7_75t_SL
*I *942:Y O *L 0.0000 *D HB1xp67_ASAP7_75t_SL

*CAP
1 *898:A2 0
2 *895:B 0
3 *894:A 0

*RES
1 *942:Y *898:A2 0
2 *942:Y *895:B 0
3 *942:Y *894:A 0
*END

*D_NET *535 0.000000

*CONN
*I *743:B I *L 0.0009 *D XNOR2xp5_ASAP7_75t_SL
*I *943:Y O *L 0.0000 *D OAI21xp33_ASAP7_75t_SL

*CAP
1 *743:B 0

*RES
1 *943:Y *743:B 0
*END

*D_NET *536 0.000000

*CONN
*I *735:B I *L 0.0009 *D XNOR2xp5_ASAP7_75t_SL
*I *944:Y O *L 0.0000 *D OAI21xp5_ASAP7_75t_SL

*CAP
1 *735:B 0

*RES
1 *944:Y *735:B 0
*END

*D_NET *537 0.000000

*CONN
*I *658:A I *L 0.0005 *D INVxp67_ASAP7_75t_SL
*I *626:B I *L 0.0004 *D NOR2xp33_ASAP7_75t_SL
*I *623:B I *L 0.0006 *D OR2x2_ASAP7_75t_SL
*I *945:A1 I *L 0.0006 *D OAI21xp5_ASAP7_75t_SL
*I *946:Y O *L 0.0000 *D BUFx3_ASAP7_75t_SL

*CAP
1 *658:A 0
2 *626:B 0
3 *623:B 0
4 *945:A1 0

*RES
1 *946:Y *658:A 0
2 *946:Y *626:B 0
3 *946:Y *623:B 0
4 *946:Y *945:A1 0
*END

*D_NET *538 0.000000

*CONN
*I *961:A I *L 0.0005 *D INVxp67_ASAP7_75t_SL
*I *864:A2 I *L 0.0006 *D OAI21xp5_ASAP7_75t_SL
*I *760:A2 I *L 0.0006 *D OAI21xp5_ASAP7_75t_SL
*I *605:A2 I *L 0.0006 *D OAI21xp5_ASAP7_75t_SL
*I *606:A2 I *L 0.0006 *D OAI21xp5_ASAP7_75t_SL
*I *607:A2 I *L 0.0006 *D OAI21xp5_ASAP7_75t_SL
*I *608:A2 I *L 0.0006 *D OAI21xp5_ASAP7_75t_SL
*I *609:A2 I *L 0.0006 *D OAI21xp5_ASAP7_75t_SL
*I *610:A2 I *L 0.0006 *D OAI21xp5_ASAP7_75t_SL
*I *611:A2 I *L 0.0006 *D OAI21xp5_ASAP7_75t_SL
*I *730:A2 I *L 0.0006 *D OAI21xp5_ASAP7_75t_SL
*I *604:A2 I *L 0.0006 *D OAI21xp5_ASAP7_75t_SL
*I *762:A2 I *L 0.0006 *D OAI21xp5_ASAP7_75t_SL
*I *945:A2 I *L 0.0006 *D OAI21xp5_ASAP7_75t_SL
*I *947:Y O *L 0.0000 *D BUFx6f_ASAP7_75t_SL

*CAP
1 *961:A 0
2 *864:A2 0
3 *760:A2 0
4 *605:A2 0
5 *606:A2 0
6 *607:A2 0
7 *608:A2 0
8 *609:A2 0
9 *610:A2 0
10 *611:A2 0
11 *730:A2 0
12 *604:A2 0
13 *762:A2 0
14 *945:A2 0

*RES
1 *947:Y *961:A 0
2 *947:Y *864:A2 0
3 *947:Y *760:A2 0
4 *947:Y *605:A2 0
5 *947:Y *606:A2 0
6 *947:Y *607:A2 0
7 *947:Y *608:A2 0
8 *947:Y *609:A2 0
9 *947:Y *610:A2 0
10 *947:Y *611:A2 0
11 *947:Y *730:A2 0
12 *947:Y *604:A2 0
13 *947:Y *762:A2 0
14 *947:Y *945:A2 0
*END

*D_NET *539 0.000000

*CONN
*I *945:B I *L 0.0006 *D OAI21xp5_ASAP7_75t_SL
*I *948:Y O *L 0.0000 *D INVx1_ASAP7_75t_SL

*CAP
1 *945:B 0

*RES
1 *948:Y *945:B 0
*END

*D_NET *540 0.000000

*CONN
*I *671:B I *L 0.0009 *D XNOR2xp5_ASAP7_75t_SL
*I *945:Y O *L 0.0000 *D OAI21xp5_ASAP7_75t_SL

*CAP
1 *671:B 0

*RES
1 *945:Y *671:B 0
*END

*D_NET *541 0.000000

*CONN
*I *744:B I *L 0.0009 *D XNOR2xp5_ASAP7_75t_SL
*I *949:Y O *L 0.0000 *D OAI21xp5_ASAP7_75t_SL

*CAP
1 *744:B 0

*RES
1 *949:Y *744:B 0
*END

*D_NET *542 0.000000

*CONN
*I *949:A2 I *L 0.0006 *D OAI21xp5_ASAP7_75t_SL
*I *944:A2 I *L 0.0006 *D OAI21xp5_ASAP7_75t_SL
*I *747:A1 I *L 0.0006 *D OAI21xp5_ASAP7_75t_SL
*I *612:A1 I *L 0.0006 *D OAI21xp5_ASAP7_75t_SL
*I *753:B I *L 0.0009 *D XNOR2xp5_ASAP7_75t_SL
*I *676:A1 I *L 0.0005 *D OAI31xp33_ASAP7_75t_SL
*I *734:A2 I *L 0.0006 *D OAI21xp5_ASAP7_75t_SL
*I *950:A2 I *L 0.0006 *D OAI21xp5_ASAP7_75t_SL
*I *951:Y O *L 0.0000 *D OA21x2_ASAP7_75t_SL

*CAP
1 *949:A2 0
2 *944:A2 0
3 *747:A1 0
4 *612:A1 0
5 *753:B 0
6 *676:A1 0
7 *734:A2 0
8 *950:A2 0

*RES
1 *951:Y *949:A2 0
2 *951:Y *944:A2 0
3 *951:Y *747:A1 0
4 *951:Y *612:A1 0
5 *951:Y *753:B 0
6 *951:Y *676:A1 0
7 *951:Y *734:A2 0
8 *951:Y *950:A2 0
*END

*D_NET *543 0.000000

*CONN
*I *740:B I *L 0.0009 *D XNOR2xp5_ASAP7_75t_SL
*I *950:Y O *L 0.0000 *D OAI21xp5_ASAP7_75t_SL

*CAP
1 *740:B 0

*RES
1 *950:Y *740:B 0
*END

*D_NET *544 0.000000

*CONN
*I *952:A I *L 0.0004 *D NOR2xp33_ASAP7_75t_SL
*I *953:Y O *L 0.0000 *D AOI21xp33_ASAP7_75t_SL

*CAP
1 *952:A 0

*RES
1 *953:Y *952:A 0
*END

*D_NET *545 0.000000

*CONN
*I *601:D I *L 0.0006 *D DFFHQNx1_ASAP7_75t_SL
*I *952:Y O *L 0.0000 *D NOR2xp33_ASAP7_75t_SL

*CAP
1 *601:D 0

*RES
1 *952:Y *601:D 0
*END

*D_NET *546 0.000000

*CONN
*I *937:A1 I *L 0.0012 *D OAI21x1_ASAP7_75t_SL
*I *951:A2 I *L 0.0006 *D OA21x2_ASAP7_75t_SL
*I *954:Y O *L 0.0000 *D NAND2x1_ASAP7_75t_SL

*CAP
1 *937:A1 0
2 *951:A2 0

*RES
1 *954:Y *937:A1 0
2 *954:Y *951:A2 0
*END

*D_NET *547 0.000000

*CONN
*I *957:A2 I *L 0.0011 *D OAI21x1_ASAP7_75t_SL
*I *955:B I *L 0.0011 *D NOR2x1_ASAP7_75t_SL
*I *956:Y O *L 0.0000 *D NOR2x2_ASAP7_75t_SL

*CAP
1 *957:A2 0
2 *955:B 0

*RES
1 *956:Y *957:A2 0
2 *956:Y *955:B 0
*END

*D_NET *548 0.000000

*CONN
*I *954:A I *L 0.0011 *D NAND2x1_ASAP7_75t_SL
*I *955:Y O *L 0.0000 *D NOR2x1_ASAP7_75t_SL

*CAP
1 *954:A 0

*RES
1 *955:Y *954:A 0
*END

*D_NET *549 0.000000

*CONN
*I *816:A1 I *L 0.0012 *D AOI21x1_ASAP7_75t_SL
*I *957:Y O *L 0.0000 *D OAI21x1_ASAP7_75t_SL

*CAP
1 *816:A1 0

*RES
1 *957:Y *816:A1 0
*END

*D_NET *550 0.000000

*CONN
*I *958:A I *L 0.0003 *D HB1xp67_ASAP7_75t_SL
*I *959:Y O *L 0.0000 *D NOR2x1p5_ASAP7_75t_L

*CAP
1 *958:A 0

*RES
1 *959:Y *958:A 0
*END

*D_NET *551 0.000000

*CONN
*I *900:A2 I *L 0.0006 *D OA21x2_ASAP7_75t_SL
*I *764:A I *L 0.0007 *D INVx1_ASAP7_75t_SL
*I *752:B I *L 0.0006 *D AOI21xp5_ASAP7_75t_SL
*I *769:B I *L 0.0005 *D NOR3xp33_ASAP7_75t_SL
*I *958:Y O *L 0.0000 *D HB1xp67_ASAP7_75t_SL

*CAP
1 *900:A2 0
2 *764:A 0
3 *752:B 0
4 *769:B 0

*RES
1 *958:Y *900:A2 0
2 *958:Y *764:A 0
3 *958:Y *752:B 0
4 *958:Y *769:B 0
*END

*D_NET *552 0.000000

*CONN
*I *960:A2 I *L 0.0006 *D AOI21xp5_ASAP7_75t_SL
*I *961:Y O *L 0.0000 *D INVxp67_ASAP7_75t_SL

*CAP
1 *960:A2 0

*RES
1 *961:Y *960:A2 0
*END

*D_NET *553 0.000000

*CONN
*I *960:A1 I *L 0.0006 *D AOI21xp5_ASAP7_75t_SL
*I *962:Y O *L 0.0000 *D INVx1_ASAP7_75t_SL

*CAP
1 *960:A1 0

*RES
1 *962:Y *960:A1 0
*END

*D_NET *554 0.000000

*CONN
*I *960:B I *L 0.0006 *D AOI21xp5_ASAP7_75t_SL
*I *963:Y O *L 0.0000 *D INVx1_ASAP7_75t_SL

*CAP
1 *960:B 0

*RES
1 *963:Y *960:B 0
*END

*D_NET *555 0.000000

*CONN
*I *952:B I *L 0.0004 *D NOR2xp33_ASAP7_75t_SL
*I *960:Y O *L 0.0000 *D AOI21xp5_ASAP7_75t_SL

*CAP
1 *952:B 0

*RES
1 *960:Y *952:B 0
*END

*D_NET *556 0.000000

*CONN
*I *973:A1 I *L 0.0006 *D AO21x2_ASAP7_75t_SL
*I *965:A1 I *L 0.0006 *D AO21x2_ASAP7_75t_SL
*I *966:Y O *L 0.0000 *D INVx1_ASAP7_75t_SL

*CAP
1 *973:A1 0
2 *965:A1 0

*RES
1 *966:Y *973:A1 0
2 *966:Y *965:A1 0
*END

*D_NET *557 0.000000

*CONN
*I *973:A2 I *L 0.0006 *D AO21x2_ASAP7_75t_SL
*I *965:A2 I *L 0.0006 *D AO21x2_ASAP7_75t_SL
*I *967:Y O *L 0.0000 *D OAI21x1_ASAP7_75t_SL

*CAP
1 *973:A2 0
2 *965:A2 0

*RES
1 *967:Y *973:A2 0
2 *967:Y *965:A2 0
*END

*D_NET *558 0.000000

*CONN
*I *973:B I *L 0.0006 *D AO21x2_ASAP7_75t_SL
*I *965:B I *L 0.0006 *D AO21x2_ASAP7_75t_SL
*I *968:Y O *L 0.0000 *D AO21x1_ASAP7_75t_SL

*CAP
1 *973:B 0
2 *965:B 0

*RES
1 *968:Y *973:B 0
2 *968:Y *965:B 0
*END

*D_NET *559 0.000000

*CONN
*I *971:A1 I *L 0.0006 *D AOI21xp5_ASAP7_75t_SL
*I *970:A1 I *L 0.0006 *D AOI21xp5_ASAP7_75t_SL
*I *969:A1 I *L 0.0006 *D AOI21xp5_ASAP7_75t_SL
*I *964:A I *L 0.0005 *D INVxp67_ASAP7_75t_SL
*I *965:Y O *L 0.0000 *D AO21x2_ASAP7_75t_SL

*CAP
1 *971:A1 0
2 *970:A1 0
3 *969:A1 0
4 *964:A 0

*RES
1 *965:Y *971:A1 0
2 *965:Y *970:A1 0
3 *965:Y *969:A1 0
4 *965:Y *964:A 0
*END

*D_NET *560 0.000000

*CONN
*I *604:B I *L 0.0006 *D OAI21xp5_ASAP7_75t_SL
*I *964:Y O *L 0.0000 *D INVxp67_ASAP7_75t_SL

*CAP
1 *604:B 0

*RES
1 *964:Y *604:B 0
*END

*D_NET *561 0.000000

*CONN
*I *611:B I *L 0.0006 *D OAI21xp5_ASAP7_75t_SL
*I *969:Y O *L 0.0000 *D AOI21xp5_ASAP7_75t_SL

*CAP
1 *611:B 0

*RES
1 *969:Y *611:B 0
*END

*D_NET *562 0.000000

*CONN
*I *610:B I *L 0.0006 *D OAI21xp5_ASAP7_75t_SL
*I *970:Y O *L 0.0000 *D AOI21xp5_ASAP7_75t_SL

*CAP
1 *610:B 0

*RES
1 *970:Y *610:B 0
*END

*D_NET *563 0.000000

*CONN
*I *864:B I *L 0.0006 *D OAI21xp5_ASAP7_75t_SL
*I *971:Y O *L 0.0000 *D AOI21xp5_ASAP7_75t_SL

*CAP
1 *864:B 0

*RES
1 *971:Y *864:B 0
*END

*D_NET *564 0.000000

*CONN
*I *976:A1 I *L 0.0006 *D AOI21xp5_ASAP7_75t_SL
*I *975:A1 I *L 0.0006 *D AOI21xp5_ASAP7_75t_SL
*I *974:A1 I *L 0.0006 *D AOI21xp5_ASAP7_75t_SL
*I *972:A1 I *L 0.0006 *D AOI21xp5_ASAP7_75t_SL
*I *973:Y O *L 0.0000 *D AO21x2_ASAP7_75t_SL

*CAP
1 *976:A1 0
2 *975:A1 0
3 *974:A1 0
4 *972:A1 0

*RES
1 *973:Y *976:A1 0
2 *973:Y *975:A1 0
3 *973:Y *974:A1 0
4 *973:Y *972:A1 0
*END

*D_NET *565 0.000000

*CONN
*I *607:B I *L 0.0006 *D OAI21xp5_ASAP7_75t_SL
*I *972:Y O *L 0.0000 *D AOI21xp5_ASAP7_75t_SL

*CAP
1 *607:B 0

*RES
1 *972:Y *607:B 0
*END

*D_NET *566 0.000000

*CONN
*I *762:B I *L 0.0006 *D OAI21xp5_ASAP7_75t_SL
*I *974:Y O *L 0.0000 *D AOI21xp5_ASAP7_75t_SL

*CAP
1 *762:B 0

*RES
1 *974:Y *762:B 0
*END

*D_NET *567 0.000000

*CONN
*I *605:B I *L 0.0006 *D OAI21xp5_ASAP7_75t_SL
*I *975:Y O *L 0.0000 *D AOI21xp5_ASAP7_75t_SL

*CAP
1 *605:B 0

*RES
1 *975:Y *605:B 0
*END

*D_NET *568 0.000000

*CONN
*I *760:B I *L 0.0006 *D OAI21xp5_ASAP7_75t_SL
*I *976:Y O *L 0.0000 *D AOI21xp5_ASAP7_75t_SL

*CAP
1 *760:B 0

*RES
1 *976:Y *760:B 0
*END

*D_NET *569 0.000000

*CONN
*I *800:B I *L 0.0016 *D NAND2x1p5_ASAP7_75t_SL
*I *977:Y O *L 0.0000 *D OA22x2_ASAP7_75t_SL

*CAP
1 *800:B 0

*RES
1 *977:Y *800:B 0
*END

*D_NET *570 0.000000

*CONN
*I *897:B I *L 0.0011 *D NOR2x1_ASAP7_75t_SL
*I *913:A2 I *L 0.0006 *D OAI21xp5_ASAP7_75t_SL
*I *978:Y O *L 0.0000 *D HB1xp67_ASAP7_75t_SL

*CAP
1 *897:B 0
2 *913:A2 0

*RES
1 *978:Y *897:B 0
2 *978:Y *913:A2 0
*END

*D_NET *571 0.000000

*CONN
*I *897:A I *L 0.0011 *D NOR2x1_ASAP7_75t_SL
*I *913:A1 I *L 0.0006 *D OAI21xp5_ASAP7_75t_SL
*I *979:Y O *L 0.0000 *D HB1xp67_ASAP7_75t_SL

*CAP
1 *897:A 0
2 *913:A1 0

*RES
1 *979:Y *897:A 0
2 *979:Y *913:A1 0
*END
